
&control
    calculation='scf'
    pseudo_dir = './',
    outdir='./outputs',
    disk_io='high'
/
&system
    ibrav= 1, celldm(1)=20.000000, nat=  192, ntyp= 2,
    ecutwfc = 30.0, nosym=.true., occupations='smearing',
    smearing='m-v', degauss=0.025
/
&electrons
    conv_thr =  1.0d-8,
    mixing_beta = 0.7
/
&ions
    pot_extrapolation='second-order'
    wfc_extrapolation='second-order'
    ion_temperature = 'andersen'
    tempw = 1000

/
ATOMIC_SPECIES
 H  1.01  H.blyp-hgh.UPF
 O  16.0  O.blyp-hgh.UPF
ATOMIC_POSITIONS bohr
 O -5.262616 -1.551334 -1.432782
 O 3.955896 -2.158738 5.390777
 O -5.733978 5.354972 -5.504819
 O -0.175878 3.692145 -1.545431
 O -4.718027 0.750183 3.877870
 O -0.234118 5.445194 5.206009
 O -0.127173 -5.384614 -3.406876
 O 2.377967 0.216988 3.629687
 O -2.852229 -5.292068 5.637654
 O 1.925084 -2.926718 1.799092
 O 2.531038 -6.089164 2.906411
 O -4.134189 -3.036217 4.419744
 O -4.436766 -5.902839 0.722641
 O -3.588468 -5.688587 -3.700565
 O 2.241480 -2.746264 -2.231458
 O -1.907386 2.449196 1.223954
 O -1.167289 -1.576255 1.777152
 O 0.215743 -4.228544 3.716589
 O 5.426766 -4.223917 -4.964880
 O 5.486537 4.880694 2.189601
 O 5.947020 -2.979400 3.253590
 O -3.239295 -2.962323 -3.837771
 O -0.892472 2.619934 -4.941486
 O 3.896727 2.354296 2.864228
 O 2.326563 1.315994 -3.104447
 O -4.886998 2.771925 -6.181695
 O 4.458613 -5.964582 -1.246655
 O 1.973842 -1.301928 -4.599952
 O -2.027919 0.200384 -4.831933
 O 0.884118 -0.326583 0.718075
 O 4.771240 -1.745673 -3.724789
 O 5.177097 0.078546 -0.095943
 O -0.218159 4.559124 1.873795
 O -5.143574 0.721216 -4.005147
 O 0.725375 -3.819596 -0.368346
 O 4.585665 3.619903 -4.407286
 O 3.487021 5.471860 5.846254
 O -5.172629 3.773488 -1.893000
 O -0.372855 1.031474 -1.664207
 O -3.056849 -3.384247 -1.079562
 O -2.619546 5.468981 3.341986
 O -1.510818 2.805121 4.044470
 O -2.623630 -0.263374 -0.690373
 O -1.529764 -2.187833 4.889729
 O 0.679779 1.831470 4.928587
 O -4.762672 3.353279 1.417766
 O 2.848907 3.934677 -0.598488
 O 2.692288 -6.008610 -3.589272
 O -2.602525 4.550621 -2.320668
 O 5.540014 0.611106 5.312565
 O -3.057846 0.231520 1.979734
 O -0.662998 -2.398262 -2.352450
 O 0.010237 -3.285580 -5.491437
 O 5.715315 -5.967501 4.365566
 O 5.059580 -3.066878 -0.221219
 O 4.666719 -0.709703 2.445983
 O 1.115066 4.312851 -4.320078
 O -0.650028 -5.803168 0.461713
 O -5.538670 -1.410143 -5.744033
 O -4.636850 1.370956 -0.880799
 O 5.199157 1.560045 -2.613222
 O 2.791670 -0.278744 -1.039687
 O -5.285976 -1.241861 1.273458
 O 1.551950 2.634926 1.463799
 H -5.066852 -1.420642 -0.466044
 H -4.459709 -1.104916 -1.791106
 H 3.594283 -2.927184 5.866834
 H 3.245503 -1.789924 4.834447
 H -6.371174 4.920513 -4.899049
 H -5.683533 4.713471 -6.240804
 H 0.343772 3.096074 -0.978460
 H 0.488250 4.277096 -1.950672
 H -5.531971 0.217416 3.802850
 H -4.882983 1.345284 4.647717
 H 0.191541 6.315459 5.109245
 H 0.013046 5.116600 6.087131
 H -0.441851 -5.522718 -2.496883
 H -0.863810 -5.742842 -3.934311
 H 2.569249 1.137564 3.331129
 H 1.404083 0.165763 3.602142
 H -3.473327 -5.518047 6.357712
 H -1.978296 -5.390858 6.056049
 H 2.023603 -2.023448 1.411730
 H 2.831051 -3.294894 1.824554
 H 3.276252 -6.379997 2.347184
 H 1.741409 -6.510232 2.521300
 H -3.350404 -3.457824 4.021564
 H -4.459631 -2.338285 3.819301
 H -3.709622 -6.471310 0.401696
 H -4.311411 -5.047495 0.265299
 H -4.470419 -5.444501 -3.369620
 H -3.605226 -6.659517 -3.777608
 H 2.239472 -1.778512 -2.087566
 H 1.980695 -3.061924 -1.317094
 H -1.191104 3.039086 0.883035
 H -1.603794 1.538672 1.069525
 H -0.298843 -1.510018 1.283797
 H -0.846702 -1.649344 2.696103
 H 1.075950 -3.805135 3.460590
 H -0.380445 -3.824311 3.060137
 H 6.116518 -4.874486 -5.208650
 H 5.788445 -3.344199 -4.687734
 H 5.797633 5.433199 2.960341
 H 6.290417 5.038299 1.641548
 H 5.420257 -2.372806 2.687509
 H 6.334119 -3.686365 2.707990
 H -2.342350 -2.765082 -4.156788
 H -3.806305 -2.942761 -4.628959
 H -0.376336 2.906548 -4.171167
 H -1.244098 1.708571 -4.756304
 H 4.774581 2.590283 3.204788
 H 3.468422 3.202308 2.659158
 H 2.854077 1.047232 -3.873286
 H 1.873858 2.142754 -3.364549
 H -5.010572 2.164994 -5.410667
 H -3.976699 3.108746 -6.096079
 H 4.129136 -5.074128 -1.455528
 H 5.398706 -5.813895 -1.055165
 H 2.764260 -1.250804 -5.171968
 H 1.238812 -1.003750 -5.161626
 H -2.018133 -0.512212 -5.500060
 H -2.874021 0.664757 -4.964292
 H 1.009793 0.631144 0.959947
 H 1.311340 -0.404608 -0.169254
 H 3.993428 -2.195061 -3.339196
 H 5.376130 -1.658586 -2.964246
 H 5.323079 1.018747 -0.354662
 H 5.955143 -0.375498 -0.554377
 H -0.699201 3.958805 2.492101
 H -0.676957 5.405072 2.086205
 H -4.687626 0.877538 -3.152983
 H -6.118946 0.677096 -3.817807
 H 0.506597 -4.733158 -0.638644
 H 1.106988 -3.846521 0.548491
 H 3.650358 3.902812 -4.452844
 H 4.638485 2.819273 -4.958772
 H 3.326970 5.118437 4.946617
 H 2.741274 6.078631 5.989392
 H -5.707040 3.900905 -1.079978
 H -4.705686 4.636117 -1.916242
 H 0.005603 0.288861 -2.166183
 H -1.310678 0.692533 -1.469812
 H -2.960608 -3.081902 -2.017996
 H -2.536670 -4.215392 -1.160958
 H -3.440099 5.797537 2.927784
 H -2.687957 5.866749 4.244852
 H -1.436199 1.991500 3.496066
 H -2.210268 3.245499 3.518233
 H -2.139560 -1.092932 -0.518352
 H -3.033138 -0.004344 0.177520
 H -2.501442 -2.257880 5.023077
 H -1.135661 -3.022731 5.205263
 H 1.489871 1.559819 5.394809
 H 0.194081 2.451882 5.499012
 H -5.211348 3.573900 2.255716
 H -3.882852 2.985559 1.629118
 H 3.376514 4.665168 -0.227825
 H 2.839611 4.141547 -1.549951
 H 3.608625 -5.744951 -3.809017
 H 2.192558 -5.176973 -3.743527
 H -2.480295 3.923278 -3.058016
 H -1.920419 4.248565 -1.684322
 H 5.962687 -0.221295 5.712731
 H 4.616055 0.297715 5.302062
 H -2.608570 -0.612421 2.204540
 H -3.796549 0.419544 2.613824
 H 0.054342 -3.059239 -2.451967
 H -0.499516 -2.026214 -1.463723
 H 0.361345 -3.267912 -4.584350
 H 0.793738 -2.987537 -5.991655
 H 4.958975 -5.745811 4.951355
 H 6.495241 -5.633301 4.836363
 H 5.811398 -3.386675 0.316912
 H 4.727672 -2.352190 0.356495
 H 4.696608 -0.186211 1.594713
 H 3.929182 -0.402300 3.034806
 H 1.349166 3.925820 -5.189686
 H 1.605538 5.185828 -4.365300
 H -1.039795 -6.637976 0.140307
 H -1.332844 -5.108963 0.515066
 H -5.334884 -1.944530 -6.535801
 H -4.707788 -0.985850 -5.462576
 H -4.087265 2.167361 -1.040634
 H -4.787198 1.374377 0.079792
 H 5.826778 2.310809 -2.626943
 H 4.327258 1.968023 -2.437318
 H 3.733086 -0.163037 -0.706739
 H 2.661968 0.334645 -1.803341
 H -6.130458 -0.869554 1.577331
 H -4.854758 -1.536924 2.093066
 H 0.844587 3.319738 1.365783
 H 2.204382 2.903147 0.773055
K_POINTS
 1
0.0 0.0 0.0 1.0