
&control
    calculation='scf'
    pseudo_dir = './',
    outdir='./outputs',
    disk_io='high'
/
&system
    ibrav= 1, celldm(1)=20.000000, nat=  192, ntyp= 2,
    ecutwfc = 30.0, nosym=.true., occupations='smearing',
    smearing='m-v', degauss=0.025
/
&electrons
    conv_thr =  1.0d-8,
    mixing_beta = 0.7
/
&ions
    pot_extrapolation='second-order'
    wfc_extrapolation='second-order'
    ion_temperature = 'andersen'
    tempw = 1000

/
ATOMIC_SPECIES
 H  1.01  H.blyp-hgh.UPF
 O  16.0  O.blyp-hgh.UPF
ATOMIC_POSITIONS bohr
 O -5.416997 -1.544772 -0.736415
 O 2.819748 -2.631747 6.133352
 O -5.622529 6.558386 -5.452467
 O 1.392879 2.884574 -1.038091
 O -5.009206 1.108211 3.868235
 O 0.096772 6.054777 5.881448
 O -1.359573 -5.686312 -2.550057
 O 3.147531 1.276932 4.679131
 O -2.946064 -6.622624 5.545779
 O 2.024973 -2.506888 3.741914
 O 2.609148 -6.625993 2.372988
 O -3.352960 -3.614858 4.521354
 O -4.681435 -7.078067 0.267810
 O -3.825912 -4.456630 -3.782308
 O 2.431201 -3.863486 -1.861152
 O -1.800280 3.138238 -1.183822
 O -1.311126 -2.918151 1.757225
 O 0.389135 -4.847449 3.525374
 O 4.418859 -4.364364 -4.721743
 O 4.812780 4.662179 2.211415
 O 5.287194 -3.940962 3.756976
 O -2.405786 -2.152811 -3.121005
 O -1.167511 3.290330 -4.486363
 O 4.387320 1.706145 1.718106
 O 2.893101 1.376348 -3.470789
 O -4.553529 3.305670 -5.412891
 O 4.952829 -5.684984 0.019496
 O 0.796920 -0.538068 -5.913561
 O -2.370990 0.567670 -5.174149
 O 0.740703 -0.786160 1.682772
 O 5.749194 -2.180882 -3.939860
 O 4.355568 -0.204187 -1.344521
 O 0.443872 4.476602 3.951408
 O -4.486060 0.426719 -3.362904
 O -0.004824 -3.871977 -0.795562
 O 5.246396 4.219288 -7.101090
 O 3.757313 6.602960 5.691184
 O -5.558406 5.618244 -2.337565
 O -0.010266 1.076530 -2.698066
 O -4.178835 -4.027755 -1.020742
 O -2.928181 5.666440 2.787315
 O -2.770421 3.229896 3.950303
 O -1.843217 -1.689270 -0.492427
 O -1.522644 -1.529208 5.265587
 O 0.303766 2.217845 5.772993
 O -4.569633 3.095458 1.488980
 O 3.685270 4.948035 -1.883320
 O 1.460033 -5.721600 -3.743067
 O -2.818386 4.539518 -3.239629
 O 5.352101 1.075807 6.642575
 O -1.471033 0.827085 1.978089
 O 0.062971 -1.771507 -3.671653
 O 0.258112 -3.601811 -5.687330
 O 7.113363 -6.311703 3.969789
 O 3.783527 -2.848056 1.193782
 O 6.023449 -1.288209 2.992866
 O 1.527318 3.756590 -4.176507
 O -1.689785 -7.384221 0.697390
 O -4.809143 -1.471488 -6.756103
 O -4.361970 1.519875 -0.673978
 O 5.274800 3.713917 -4.185308
 O 1.501810 -0.977410 -1.408706
 O -4.871694 -3.771916 2.330652
 O 1.713377 3.046030 2.058417
 H -5.134209 -2.492114 -0.812428
 H -4.751385 -1.195588 -1.367425
 H 2.380599 -2.107063 6.827280
 H 2.428593 -2.230458 5.315053
 H -5.496996 5.749060 -4.913765
 H -4.977783 7.166325 -4.972686
 H 2.310831 2.813976 -1.353774
 H 1.227111 3.851348 -1.016025
 H -5.647519 0.459823 4.193412
 H -4.286916 0.896437 4.475903
 H 0.313636 6.956093 5.590635
 H 0.016899 5.935527 6.843110
 H -0.780093 -6.145657 -1.908656
 H -0.843098 -5.591358 -3.378645
 H 3.630714 1.849272 4.066065
 H 2.600639 0.707230 4.087814
 H -2.797370 -7.420168 6.083986
 H -2.073849 -6.355739 5.175772
 H 1.612838 -1.884602 3.104559
 H 2.693767 -2.906300 3.124595
 H 1.731371 -6.423936 2.748806
 H 3.026291 -5.779538 2.106093
 H -3.501358 -4.579630 4.654071
 H -3.250794 -3.745190 3.556718
 H -4.656982 -7.758555 0.964933
 H -5.219956 -7.360984 -0.491711
 H -3.127581 -3.826498 -4.020359
 H -3.459179 -5.184069 -3.241070
 H 3.076592 -3.472595 -2.482617
 H 1.711086 -3.235085 -1.618534
 H -2.584429 3.591373 -1.583918
 H -1.712536 3.255015 -0.200659
 H -1.745711 -2.515320 0.965257
 H -0.696853 -2.177315 1.929969
 H 0.485599 -3.871096 3.608854
 H -0.322935 -4.965523 2.861157
 H 5.302692 -4.636124 -5.112151
 H 4.057496 -3.639009 -5.315533
 H 3.875684 4.970736 2.313726
 H 5.244909 5.071274 2.977367
 H 6.019550 -3.312445 3.626208
 H 4.701649 -3.464603 4.374139
 H -1.506827 -1.799733 -3.465381
 H -3.103477 -1.472224 -3.220650
 H -0.385393 2.864384 -4.068497
 H -1.527244 2.545561 -5.003992
 H 4.998022 2.469632 1.702667
 H 3.507924 2.133627 1.860079
 H 2.243800 0.789455 -3.926811
 H 2.472144 2.278663 -3.546211
 H -5.384455 3.476728 -5.904733
 H -4.838183 2.538716 -4.878969
 H 5.178919 -6.420722 0.637242
 H 5.783381 -5.527399 -0.470404
 H -0.159415 -0.648622 -6.151810
 H 1.006726 0.269258 -6.450042
 H -2.845970 0.029330 -5.834130
 H -3.089101 0.752382 -4.500232
 H 0.035894 -0.090150 1.763967
 H 0.796009 -1.005463 0.726073
 H 5.822955 -3.124575 -4.214262
 H 6.234720 -2.178970 -3.083281
 H 4.054674 0.564458 -0.811870
 H 5.188360 -0.535897 -0.883240
 H 0.466420 4.939842 4.843469
 H -0.204128 3.754706 4.042984
 H -4.720145 0.759529 -2.426851
 H -5.273778 -0.101197 -3.615643
 H -0.576688 -4.415116 -1.395878
 H -0.433792 -3.919692 0.084101
 H 5.459351 5.167129 -7.257624
 H 5.539103 3.680320 -7.861256
 H 3.165380 6.284270 4.975390
 H 3.300237 7.218426 6.306796
 H -6.391545 5.072266 -2.523130
 H -5.011959 5.157796 -3.043677
 H -0.938812 1.258375 -2.910888
 H 0.340704 1.837732 -2.164878
 H -3.557583 -3.742124 -1.711862
 H -3.769614 -4.614170 -0.337779
 H -3.680675 5.501127 2.183991
 H -3.337818 5.646781 3.697596
 H -2.393915 4.020289 3.517006
 H -3.729521 3.417808 3.911114
 H -2.161092 -1.823655 -1.423439
 H -1.789621 -0.716782 -0.447071
 H -1.944552 -2.120209 4.599951
 H -1.581418 -2.112998 6.049662
 H 0.557166 2.865849 5.093661
 H -0.670523 2.346332 5.782438
 H -5.059046 2.703086 2.248205
 H -3.957074 2.396506 1.181779
 H 4.180807 5.736070 -1.535729
 H 3.778553 4.875853 -2.858531
 H 1.107550 -5.201714 -4.491050
 H 1.843512 -5.092583 -3.048792
 H -3.357879 3.847928 -3.705317
 H -1.945389 4.370034 -3.678449
 H 4.975116 0.532615 7.353337
 H 4.756905 0.829089 5.890488
 H -1.676694 0.377666 2.845798
 H -1.165218 1.772712 2.143314
 H 0.356655 -1.334105 -2.826093
 H 0.398441 -1.219380 -4.413485
 H 0.825667 -3.021628 -5.135908
 H 0.743114 -3.685738 -6.524942
 H 7.146085 -5.871569 4.844457
 H 7.065451 -5.596972 3.305306
 H 4.418863 -3.570957 1.061383
 H 3.435229 -2.548556 0.338117
 H 5.801593 -0.588957 2.331768
 H 5.199700 -1.368111 3.513764
 H 1.775072 3.837141 -5.113049
 H 1.486941 4.724859 -3.986971
 H -1.791238 -6.631949 1.328412
 H -2.344790 -7.191890 -0.005024
 H -5.658084 -1.827358 -6.423061
 H -4.494668 -2.110091 -7.424974
 H -3.618629 2.107040 -1.002839
 H -4.941456 2.041310 -0.070146
 H 5.649750 4.216318 -4.933790
 H 4.990851 2.918403 -4.716229
 H 2.431631 -0.719624 -1.683157
 H 1.044588 -0.098410 -1.470179
 H -5.022784 -4.163108 1.428697
 H -5.308445 -2.893690 2.220903
 H 1.297666 3.398350 2.870292
 H 1.045255 2.856442 1.394404
K_POINTS
 1
0.0 0.0 0.0 1.0