
&control
    calculation='scf'
    pseudo_dir = './',
    outdir='./outputs',
    disk_io='high'
/
&system
    ibrav= 1, celldm(1)=20.000000, nat=  192, ntyp= 2,
    ecutwfc = 30.0, nosym=.true., occupations='smearing',
    smearing='m-v', degauss=0.025
/
&electrons
    conv_thr =  1.0d-8,
    mixing_beta = 0.7
/
&ions
    pot_extrapolation='second-order'
    wfc_extrapolation='second-order'
    ion_temperature = 'andersen'
    tempw = 1000

/
ATOMIC_SPECIES
 H  1.01  H.blyp-hgh.UPF
 O  16.0  O.blyp-hgh.UPF
ATOMIC_POSITIONS bohr
 O -5.419063 -1.545817 -0.733937
 O 2.822107 -2.629931 6.133472
 O -5.624194 6.559945 -5.454951
 O 1.395637 2.881823 -1.038435
 O -5.008697 1.105996 3.871620
 O 0.098695 6.054223 5.880915
 O -1.360745 -5.688986 -2.550198
 O 3.148695 1.278253 4.680409
 O -2.947425 -6.624081 5.544267
 O 2.023123 -2.507439 3.742099
 O 2.611311 -6.625978 2.371717
 O -3.352180 -3.614961 4.524108
 O -4.680444 -7.077555 0.264724
 O -3.824142 -4.453688 -3.784081
 O 2.430358 -3.866430 -1.860623
 O -1.798378 3.137934 -1.186575
 O -1.309541 -2.917719 1.755364
 O 0.386443 -4.847536 3.525712
 O 4.417240 -4.363525 -4.719502
 O 4.809271 4.661166 2.210719
 O 5.287206 -3.941525 3.758592
 O -2.406099 -2.151820 -3.120451
 O -1.166799 3.290765 -4.487106
 O 4.387782 1.705914 1.714900
 O 2.894056 1.378072 -3.470082
 O -4.554403 3.307545 -5.412300
 O 4.952006 -5.684410 0.022339
 O 0.795619 -0.539861 -5.914093
 O -2.373156 0.566519 -5.174157
 O 0.738316 -0.785273 1.682362
 O 5.749899 -2.180435 -3.938973
 O 4.354928 -0.204417 -1.345612
 O 0.442480 4.477324 3.951816
 O -4.487624 0.425176 -3.361581
 O -0.005131 -3.873306 -0.795372
 O 5.247409 4.218323 -7.104694
 O 3.759583 6.603097 5.689171
 O -5.559762 5.621266 -2.335185
 O -0.010544 1.077177 -2.697864
 O -4.180945 -4.029295 -1.020277
 O -2.928660 5.666951 2.784895
 O -2.772313 3.227816 3.947780
 O -1.844891 -1.686244 -0.492846
 O -1.524380 -1.528511 5.265447
 O 0.304260 2.219678 5.771146
 O -4.567881 3.095320 1.490389
 O 3.685536 4.950088 -1.884405
 O 1.458897 -5.721022 -3.741914
 O -2.817255 4.540062 -3.239402
 O 5.354162 1.077130 6.643228
 O -1.469272 0.826791 1.979251
 O 0.064260 -1.771727 -3.670843
 O 0.257952 -3.601679 -5.686301
 O 7.115988 -6.313882 3.970202
 O 3.784077 -2.848371 1.193546
 O 6.023820 -1.289488 2.992489
 O 1.529115 3.757046 -4.175006
 O -1.691513 -7.385460 0.700874
 O -4.807406 -1.469992 -6.758452
 O -4.361842 1.518656 -0.674306
 O 5.273724 3.713278 -4.188406
 O 1.500954 -0.979637 -1.406931
 O -4.874552 -3.774259 2.332235
 O 1.713732 3.044158 2.059797
 H -5.134218 -2.492372 -0.811031
 H -4.751366 -1.192700 -1.362143
 H 2.378464 -2.114465 6.830931
 H 2.423625 -2.230877 5.317406
 H -5.492495 5.751393 -4.915649
 H -4.982981 7.166941 -4.968616
 H 2.313803 2.820288 -1.353375
 H 1.223625 3.847893 -1.013752
 H -5.650280 0.460710 4.196661
 H -4.286649 0.895305 4.477819
 H 0.317264 6.954673 5.591565
 H 0.017595 5.929944 6.841001
 H -0.784748 -6.152283 -1.910128
 H -0.847294 -5.590046 -3.379882
 H 3.634259 1.847366 4.064230
 H 2.610259 0.701437 4.087478
 H -2.796198 -7.420096 6.086263
 H -2.075052 -6.352968 5.179621
 H 1.608115 -1.883301 3.108941
 H 2.700933 -2.903715 3.128715
 H 1.734498 -6.419363 2.748530
 H 3.027413 -5.780091 2.101268
 H -3.496915 -4.579703 4.654363
 H -3.245707 -3.740597 3.557590
 H -4.652975 -7.760113 0.960524
 H -5.219794 -7.357913 -0.494886
 H -3.127151 -3.822847 -4.020984
 H -3.462505 -5.182339 -3.243092
 H 3.073550 -3.473418 -2.482557
 H 1.712682 -3.233617 -1.615515
 H -2.584354 3.592297 -1.582543
 H -1.714901 3.258278 -0.201938
 H -1.745403 -2.509581 0.964396
 H -0.696411 -2.180050 1.932455
 H 0.481539 -3.871748 3.609950
 H -0.322774 -4.967385 2.860499
 H 5.300279 -4.628895 -5.113671
 H 4.061666 -3.640068 -5.319864
 H 3.873249 4.970016 2.317782
 H 5.248490 5.072611 2.973753
 H 6.015965 -3.308566 3.630410
 H 4.700359 -3.468143 4.377477
 H -1.506169 -1.797363 -3.460894
 H -3.103109 -1.470127 -3.217123
 H -0.383408 2.867399 -4.065935
 H -1.527085 2.547859 -5.009453
 H 5.001699 2.466938 1.701639
 H 3.511100 2.138465 1.857391
 H 2.243094 0.789961 -3.922808
 H 2.465484 2.277482 -3.547533
 H -5.382059 3.483345 -5.907145
 H -4.837630 2.537274 -4.882801
 H 5.180552 -6.418890 0.640100
 H 5.783264 -5.523953 -0.464403
 H -0.159870 -0.649735 -6.155008
 H 1.010949 0.263989 -6.452842
 H -2.847845 0.027373 -5.835351
 H -3.093047 0.763810 -4.506262
 H 0.035032 -0.088167 1.764360
 H 0.795966 -1.002905 0.724925
 H 5.826519 -3.124504 -4.214325
 H 6.239237 -2.182005 -3.084309
 H 4.055307 0.562719 -0.811487
 H 5.190456 -0.533036 -0.888645
 H 0.467536 4.937477 4.843086
 H -0.206772 3.750095 4.044466
 H -4.711692 0.745853 -2.419405
 H -5.274728 -0.103637 -3.613630
 H -0.575494 -4.411321 -1.402814
 H -0.438469 -3.920816 0.082070
 H 5.465722 5.166497 -7.258213
 H 5.539062 3.685520 -7.870912
 H 3.168844 6.279841 4.974643
 H 3.305625 7.213839 6.313048
 H -6.385585 5.066368 -2.524482
 H -5.015029 5.160055 -3.040019
 H -0.939804 1.262649 -2.911739
 H 0.343495 1.840206 -2.169137
 H -3.552864 -3.746086 -1.708477
 H -3.769508 -4.609593 -0.334071
 H -3.680769 5.502221 2.182479
 H -3.335813 5.646208 3.696049
 H -2.391063 4.018001 3.516318
 H -3.730561 3.422937 3.912233
 H -2.162358 -1.822310 -1.423940
 H -1.790289 -0.713553 -0.443338
 H -1.946395 -2.119430 4.599945
 H -1.582917 -2.115165 6.047223
 H 0.552264 2.868662 5.093116
 H -0.666569 2.352435 5.778842
 H -5.056003 2.702620 2.249895
 H -3.957865 2.394915 1.182945
 H 4.178471 5.736963 -1.532150
 H 3.777103 4.877894 -2.859231
 H 1.100412 -5.197385 -4.484003
 H 1.844898 -5.095083 -3.047549
 H -3.364024 3.853587 -3.703211
 H -1.949092 4.371393 -3.685295
 H 4.979247 0.532783 7.353483
 H 4.759354 0.827655 5.889840
 H -1.684925 0.384933 2.848683
 H -1.156525 1.773257 2.134692
 H 0.355252 -1.328689 -2.827085
 H 0.397565 -1.220401 -4.412497
 H 0.829060 -3.029550 -5.131648
 H 0.739283 -3.685192 -6.524838
 H 7.145624 -5.876310 4.845675
 H 7.065306 -5.600235 3.306419
 H 4.420130 -3.570133 1.064356
 H 3.435813 -2.545773 0.338764
 H 5.807833 -0.587917 2.332945
 H 5.200077 -1.370905 3.512556
 H 1.773918 3.838129 -5.111955
 H 1.484854 4.724646 -3.991357
 H -1.781482 -6.631605 1.331281
 H -2.343545 -7.185757 -0.002575
 H -5.656419 -1.826713 -6.427109
 H -4.490492 -2.111501 -7.424742
 H -3.627815 2.117683 -1.003496
 H -4.947021 2.037053 -0.073759
 H 5.644285 4.220163 -4.936340
 H 4.994099 2.918952 -4.722008
 H 2.431727 -0.724604 -1.680361
 H 1.044623 -0.100264 -1.472908
 H -5.009792 -4.162755 1.426926
 H -5.311565 -2.896985 2.216243
 H 1.300920 3.405691 2.869155
 H 1.044751 2.856279 1.396479
K_POINTS
 1
0.0 0.0 0.0 1.0