
&control
    calculation='scf'
    pseudo_dir = './',
    outdir='./outputs',
    disk_io='high'
/
&system
    ibrav= 1, celldm(1)=20.000000, nat=  192, ntyp= 2,
    ecutwfc = 30.0, nosym=.true., occupations='smearing',
    smearing='m-v', degauss=0.025
/
&electrons
    conv_thr =  1.0d-8,
    mixing_beta = 0.7
/
&ions
    pot_extrapolation='second-order'
    wfc_extrapolation='second-order'
    ion_temperature = 'andersen'
    tempw = 1000

/
ATOMIC_SPECIES
 H  1.01  H.blyp-hgh.UPF
 O  16.0  O.blyp-hgh.UPF
ATOMIC_POSITIONS bohr
 O -5.581798 -1.623665 -0.587025
 O 3.023047 -2.468732 6.190816
 O -5.702543 6.712990 -5.581381
 O 1.628406 2.712388 -1.072293
 O -4.983674 0.997330 4.103623
 O 0.216847 5.947083 5.867896
 O -1.482974 -5.839076 -2.526691
 O 3.283034 1.322063 4.704808
 O -2.968996 -6.718153 5.454779
 O 1.867877 -2.536464 3.717811
 O 2.668780 -6.489472 2.279471
 O -3.232137 -3.617228 4.702363
 O -4.554134 -7.006450 0.059320
 O -3.758658 -4.244227 -3.975798
 O 2.397716 -4.072613 -1.858184
 O -1.715455 3.099140 -1.337896
 O -1.236720 -2.894989 1.640044
 O 0.170862 -4.870755 3.577028
 O 4.339668 -4.239640 -4.625167
 O 4.692704 4.526935 2.164656
 O 5.232298 -3.960656 3.937070
 O -2.458812 -2.039752 -3.042669
 O -1.096626 3.325021 -4.605454
 O 4.426490 1.712830 1.475873
 O 2.905859 1.514509 -3.446816
 O -4.579524 3.464954 -5.369234
 O 4.907541 -5.620752 0.260035
 O 0.694320 -0.678115 -5.999892
 O -2.561856 0.536278 -5.184673
 O 0.589884 -0.764372 1.665544
 O 5.895734 -2.112546 -3.829666
 O 4.305152 -0.230655 -1.416307
 O 0.323976 4.424222 3.919650
 O -4.604980 0.278938 -3.196898
 O -0.035199 -4.009818 -0.784924
 O 5.396924 4.122402 -7.418325
 O 3.963436 6.606790 5.513832
 O -5.715074 5.730380 -2.235597
 O -0.024713 1.147885 -2.692774
 O -4.291606 -4.147753 -0.946185
 O -2.934288 5.763558 2.679646
 O -2.869938 3.047169 3.769403
 O -2.012618 -1.407758 -0.481938
 O -1.677409 -1.495628 5.271449
 O 0.349810 2.346500 5.586471
 O -4.476251 3.007262 1.642325
 O 3.671384 5.055700 -1.934252
 O 1.325096 -5.681198 -3.673541
 O -2.925205 4.620052 -3.223729
 O 5.526062 1.153952 6.694240
 O -1.361613 0.832451 2.095824
 O 0.170198 -1.761024 -3.603538
 O 0.192582 -3.666257 -5.603260
 O 7.261224 -6.490761 4.001304
 O 3.811333 -2.847443 1.242477
 O 6.071395 -1.384977 2.971982
 O 1.662273 3.851552 -4.095197
 O -1.740386 -7.470127 0.849494
 O -4.655834 -1.356810 -6.956602
 O -4.369036 1.491313 -0.713612
 O 5.179229 3.698132 -4.458453
 O 1.448722 -1.114485 -1.245241
 O -5.061903 -3.978098 2.294129
 O 1.751349 2.868345 2.203654
 H -5.095316 -2.500749 -0.600492
 H -4.833056 -0.991253 -0.493085
 H 2.508412 -2.356182 7.015960
 H 2.368628 -2.460559 5.430672
 H -5.386324 5.823187 -5.363540
 H -5.218782 7.399858 -5.070537
 H 2.439849 3.250619 -1.284026
 H 0.936855 3.357977 -0.828442
 H -5.632649 0.340998 4.462963
 H -4.254701 0.788397 4.742506
 H 0.500288 6.888546 5.871009
 H 0.272188 5.771182 6.827531
 H -1.080535 -6.705905 -2.296193
 H -0.877529 -5.641074 -3.259891
 H 3.805367 1.878382 4.082361
 H 3.324163 0.406443 4.377995
 H -2.996999 -7.397666 6.159291
 H -2.129746 -6.251135 5.645368
 H 1.487070 -1.770554 3.168163
 H 2.753770 -2.517297 3.288130
 H 1.928585 -6.066390 2.763788
 H 3.059359 -5.873310 1.629980
 H -3.234634 -4.587623 4.860484
 H -3.129866 -3.487958 3.729539
 H -4.606954 -7.967510 0.257033
 H -5.033227 -6.849695 -0.824437
 H -3.068598 -3.536513 -3.792527
 H -3.328388 -4.997644 -3.506012
 H 2.990424 -3.530182 -2.410735
 H 1.721931 -3.535957 -1.383842
 H -2.040951 3.772603 -2.020097
 H -1.644988 3.534111 -0.477335
 H -1.563596 -2.263697 0.914373
 H -0.421854 -2.374887 1.922379
 H 0.499115 -3.957596 3.412256
 H -0.485160 -4.982577 2.860915
 H 4.950611 -4.941535 -4.921352
 H 3.907069 -3.663949 -5.290505
 H 3.848902 4.839726 2.610409
 H 5.370361 5.164355 2.482333
 H 5.733352 -3.123455 3.939922
 H 4.660197 -4.114368 4.716074
 H -1.484406 -1.861758 -3.298924
 H -2.943293 -1.239100 -3.369560
 H -0.149930 3.138160 -4.376653
 H -1.395010 2.476316 -5.022400
 H 5.195215 2.306935 1.564875
 H 3.638829 2.309685 1.474799
 H 2.414083 0.692313 -3.487148
 H 2.383580 2.315506 -3.609423
 H -5.168477 3.744370 -6.125381
 H -5.040193 2.586793 -5.315261
 H 5.101122 -6.368494 0.867465
 H 5.765369 -5.251799 -0.030116
 H -0.046881 -0.729250 -6.648089
 H 1.253859 0.054008 -6.311844
 H -2.915199 -0.125066 -5.824182
 H -3.290464 1.181253 -5.116922
 H -0.121970 -0.100436 1.779053
 H 0.917206 -0.779510 0.741734
 H 5.678453 -2.990430 -4.203953
 H 6.438535 -2.223709 -3.035775
 H 4.195531 0.477855 -0.756843
 H 5.197838 -0.572476 -1.318348
 H 0.252330 5.066354 4.672896
 H -0.525530 3.993657 3.953204
 H -4.266799 -0.006580 -2.329023
 H -5.353941 -0.312080 -3.415920
 H -0.516514 -4.085762 -1.624801
 H -0.768034 -3.785125 -0.169046
 H 5.632276 5.052075 -7.262779
 H 5.409500 4.042102 -8.396665
 H 3.218094 6.093739 5.159977
 H 3.674263 6.464435 6.439554
 H -6.296946 4.969690 -2.354839
 H -4.778375 5.733647 -2.418410
 H -0.923607 1.513444 -2.730621
 H 0.535213 1.866710 -2.290517
 H -3.565679 -4.039207 -1.597668
 H -3.947122 -4.381246 -0.073588
 H -3.642692 5.588494 2.026372
 H -3.449050 5.891821 3.501664
 H -2.457967 3.772434 3.228410
 H -3.605764 3.552808 4.168511
 H -2.067354 -1.577340 -1.470486
 H -1.990462 -0.440761 -0.364732
 H -2.050327 -1.923845 4.487682
 H -1.623862 -2.193495 5.952288
 H 0.882651 2.939353 5.026227
 H -0.605287 2.559945 5.665599
 H -4.747058 2.670629 2.515374
 H -3.805091 2.368056 1.337111
 H 3.905646 5.873638 -1.456192
 H 3.912663 5.292954 -2.842470
 H 0.794502 -4.877174 -3.853817
 H 1.806897 -5.367577 -2.854016
 H -3.775253 4.358259 -3.614160
 H -2.272159 4.198692 -3.859886
 H 5.223158 0.602295 7.455367
 H 4.811262 1.071711 6.024849
 H -1.987198 1.422347 2.579885
 H -0.823321 1.571526 1.807949
 H 0.538053 -1.317705 -2.816669
 H 0.234710 -1.164856 -4.403235
 H 0.841984 -3.495824 -4.890749
 H 0.667862 -3.298305 -6.388404
 H 7.099314 -6.222537 4.942557
 H 6.914408 -5.653380 3.592089
 H 4.378212 -3.625521 1.009395
 H 3.624533 -2.561959 0.328046
 H 6.137353 -0.595758 2.402181
 H 5.092760 -1.455035 3.011734
 H 1.707484 3.568477 -5.029961
 H 1.532863 4.815222 -3.898534
 H -1.221516 -7.038403 1.556751
 H -2.269847 -6.746865 0.451235
 H -5.486439 -1.647870 -6.540868
 H -4.167612 -2.212916 -7.106152
 H -4.234422 2.391927 -1.056733
 H -5.332161 1.323554 -0.592453
 H 4.863101 4.425058 -5.029287
 H 5.146495 2.861884 -4.973006
 H 2.422540 -1.016600 -1.287762
 H 1.129900 -0.264817 -1.623550
 H -4.137169 -4.001657 1.934068
 H -5.512333 -3.142531 2.033714
 H 1.663447 3.832917 2.445901
 H 1.215555 2.933926 1.372160
K_POINTS
 1
0.0 0.0 0.0 1.0