
&control
    calculation='scf'
    pseudo_dir = './',
    outdir='./outputs',
    disk_io='high'
/
&system
    ibrav= 1, celldm(1)=20.000000, nat=  192, ntyp= 2,
    ecutwfc = 30.0, nosym=.true., occupations='smearing',
    smearing='m-v', degauss=0.025
/
&electrons
    conv_thr =  1.0d-8,
    mixing_beta = 0.7
/
&ions
    pot_extrapolation='second-order'
    wfc_extrapolation='second-order'
    ion_temperature = 'andersen'
    tempw = 1000

/
ATOMIC_SPECIES
 H  1.01  H.blyp-hgh.UPF
 O  16.0  O.blyp-hgh.UPF
ATOMIC_POSITIONS bohr
 O -5.261726 -1.544450 -1.471733
 O 3.946670 -2.143991 5.389227
 O -5.737576 5.379202 -5.492285
 O -0.178746 3.721699 -1.535300
 O -4.721482 0.757392 3.891089
 O -0.233769 5.449765 5.211664
 O -0.128094 -5.389804 -3.405528
 O 2.395478 0.195445 3.619069
 O -2.852133 -5.292293 5.642556
 O 1.935694 -2.903736 1.835315
 O 2.538421 -6.093971 2.906324
 O -4.113274 -3.030697 4.438319
 O -4.438402 -5.888445 0.723017
 O -3.595126 -5.692919 -3.718345
 O 2.281490 -2.749219 -2.251477
 O -1.932296 2.442253 1.172061
 O -1.189487 -1.622786 1.804625
 O 0.212610 -4.220435 3.731650
 O 5.420360 -4.248705 -4.969096
 O 5.470360 4.904507 2.193036
 O 5.930490 -2.982687 3.257646
 O -3.240803 -2.944927 -3.841415
 O -0.890745 2.627277 -4.943160
 O 3.903523 2.355352 2.872867
 O 2.327901 1.327500 -3.102149
 O -4.879096 2.749950 -6.195860
 O 4.466201 -5.970483 -1.245268
 O 1.981782 -1.297264 -4.605428
 O -2.030650 0.187046 -4.830708
 O 0.897469 -0.325772 0.736003
 O 4.766246 -1.743532 -3.704794
 O 5.183039 0.083097 -0.110259
 O -0.199444 4.575381 1.889745
 O -5.111517 0.723713 -4.004899
 O 0.726995 -3.823372 -0.371259
 O 4.577453 3.658430 -4.429825
 O 3.465321 5.467389 5.850524
 O -5.198380 3.813951 -1.921882
 O -0.373171 1.024179 -1.688101
 O -3.071944 -3.412638 -1.059185
 O -2.629634 5.475791 3.331470
 O -1.520903 2.804233 4.086950
 O -2.617438 -0.279080 -0.696455
 O -1.535223 -2.177875 4.881011
 O 0.664339 1.842832 4.940287
 O -4.746571 3.339690 1.406627
 O 2.868311 3.948092 -0.614161
 O 2.696058 -6.015611 -3.604635
 O -2.583578 4.535415 -2.322101
 O 5.505511 0.617293 5.333234
 O -3.038705 0.248213 1.982384
 O -0.667437 -2.387730 -2.373250
 O 0.010855 -3.305152 -5.487247
 O 5.727858 -5.964266 4.342509
 O 5.034378 -3.089457 -0.210374
 O 4.656380 -0.712389 2.449474
 O 1.137177 4.319455 -4.313145
 O -0.666585 -5.816432 0.457535
 O -5.535149 -1.425978 -5.735422
 O -4.638713 1.350806 -0.865229
 O 5.192897 1.533639 -2.568397
 O 2.813044 -0.282421 -1.067017
 O -5.282253 -1.256376 1.289244
 O 1.559702 2.613801 1.468173
 H -5.146908 -1.404031 -0.499976
 H -4.475004 -1.034716 -1.773509
 H 3.618114 -2.908433 5.893181
 H 3.229330 -1.859409 4.792494
 H -6.401606 4.946144 -4.915435
 H -5.614453 4.730570 -6.211069
 H 0.337810 3.058066 -1.045490
 H 0.502880 4.287825 -1.930579
 H -5.566184 0.278830 3.806833
 H -4.811804 1.355064 4.667799
 H 0.190999 6.319621 5.108408
 H 0.057580 5.131800 6.080775
 H -0.452458 -5.494121 -2.494945
 H -0.883046 -5.707750 -3.934301
 H 2.620514 1.114085 3.355752
 H 1.422600 0.181376 3.642992
 H -3.458554 -5.492204 6.382215
 H -1.972188 -5.411145 6.040331
 H 2.053008 -2.038406 1.394226
 H 2.846580 -3.251838 1.852314
 H 3.268774 -6.420571 2.349878
 H 1.733748 -6.490191 2.526936
 H -3.307413 -3.437802 4.071630
 H -4.498166 -2.419919 3.775717
 H -3.781521 -6.525677 0.382046
 H -4.259277 -5.052083 0.249393
 H -4.463776 -5.392554 -3.398376
 H -3.628976 -6.666904 -3.715862
 H 2.277058 -1.786541 -2.106689
 H 1.880962 -3.072801 -1.388298
 H -1.150197 2.987853 0.932828
 H -1.668481 1.514037 1.042370
 H -0.325970 -1.372440 1.322110
 H -0.842968 -1.655679 2.717588
 H 1.079771 -3.901963 3.368233
 H -0.401905 -3.860164 3.065292
 H 6.162298 -4.869050 -5.121793
 H 5.701807 -3.321706 -4.759392
 H 5.784148 5.375410 3.003592
 H 6.300609 5.012928 1.688438
 H 5.450586 -2.339691 2.690763
 H 6.255858 -3.695996 2.680427
 H -2.341323 -2.747951 -4.156051
 H -3.763744 -2.939331 -4.661853
 H -0.367322 2.877656 -4.166610
 H -1.318240 1.765528 -4.742728
 H 4.788498 2.615856 3.176909
 H 3.476695 3.191226 2.622250
 H 2.831360 1.049951 -3.885306
 H 1.828215 2.107466 -3.410822
 H -4.996510 2.111970 -5.455598
 H -3.979724 3.096740 -6.054924
 H 4.109705 -5.082037 -1.419232
 H 5.398143 -5.796184 -1.039137
 H 2.754934 -1.277632 -5.202692
 H 1.256411 -0.990505 -5.174344
 H -1.982285 -0.505098 -5.520239
 H -2.889747 0.621831 -4.989186
 H 0.929491 0.624891 1.021434
 H 1.373424 -0.372624 -0.135263
 H 3.994260 -2.191649 -3.320556
 H 5.370323 -1.643384 -2.948123
 H 5.381462 0.995129 -0.422741
 H 5.910485 -0.377964 -0.582156
 H -0.680351 3.970058 2.479466
 H -0.721531 5.376218 2.112186
 H -4.699403 0.812191 -3.122523
 H -6.087783 0.727426 -3.922184
 H 0.462548 -4.736891 -0.599744
 H 1.180514 -3.820880 0.514830
 H 3.653510 3.955081 -4.551587
 H 4.646956 2.833315 -4.943125
 H 3.361182 5.172246 4.922052
 H 2.722594 6.075971 5.998888
 H -5.660517 3.883858 -1.057623
 H -4.681067 4.643140 -1.843827
 H 0.021988 0.280761 -2.177390
 H -1.247996 0.620119 -1.340169
 H -2.974054 -3.031268 -1.952698
 H -2.489224 -4.188105 -1.191723
 H -3.471392 5.778747 2.949323
 H -2.709377 5.821162 4.244646
 H -1.397689 2.048840 3.471404
 H -2.181383 3.295386 3.554626
 H -2.111267 -1.099125 -0.563553
 H -3.061695 -0.071578 0.166606
 H -2.508616 -2.291273 4.947615
 H -1.094794 -2.973267 5.233774
 H 1.443598 1.548059 5.437852
 H 0.207745 2.471765 5.525008
 H -5.160503 3.581034 2.251859
 H -3.880944 2.950356 1.631231
 H 3.379136 4.687944 -0.238208
 H 2.844462 4.152926 -1.564633
 H 3.600033 -5.697742 -3.797500
 H 2.185393 -5.176613 -3.646080
 H -2.476988 3.938542 -3.083220
 H -1.871429 4.251911 -1.714671
 H 5.936608 -0.226829 5.609511
 H 4.591361 0.283433 5.306143
 H -2.539748 -0.586220 2.147191
 H -3.778948 0.367158 2.614025
 H 0.089157 -3.002070 -2.486776
 H -0.566657 -2.023918 -1.474928
 H 0.336007 -3.228419 -4.572425
 H 0.784851 -2.949421 -5.960660
 H 4.970874 -5.819865 4.955270
 H 6.482549 -5.601956 4.837287
 H 5.844522 -3.344566 0.278210
 H 4.743536 -2.322343 0.322268
 H 4.757486 -0.131172 1.651224
 H 3.852270 -0.471070 2.986196
 H 1.326651 3.972852 -5.205184
 H 1.581392 5.184913 -4.381589
 H -1.081558 -6.669162 0.223354
 H -1.333904 -5.106478 0.450512
 H -5.281064 -1.930633 -6.532043
 H -4.705522 -0.992819 -5.471606
 H -4.155965 2.184526 -1.049163
 H -4.781969 1.344969 0.097351
 H 5.818967 2.284467 -2.575061
 H 4.316713 1.959077 -2.462039
 H 3.740273 -0.070326 -0.761225
 H 2.588016 0.310520 -1.817765
 H -6.144409 -0.926732 1.584943
 H -4.850895 -1.519364 2.115434
 H 0.798830 3.208136 1.359118
 H 2.148016 2.967431 0.753989
K_POINTS
 1
0.0 0.0 0.0 1.0