
&control
    calculation='scf'
    pseudo_dir = './',
    outdir='./outputs',
    disk_io='high'
/
&system
    ibrav= 1, celldm(1)=20.000000, nat=  192, ntyp= 2,
    ecutwfc = 30.0, nosym=.true., occupations='smearing',
    smearing='m-v', degauss=0.025
/
&electrons
    conv_thr =  1.0d-8,
    mixing_beta = 0.7
/
&ions
    pot_extrapolation='second-order'
    wfc_extrapolation='second-order'
    ion_temperature = 'andersen'
    tempw = 1000

/
ATOMIC_SPECIES
 H  1.01  H.blyp-hgh.UPF
 O  16.0  O.blyp-hgh.UPF
ATOMIC_POSITIONS bohr
 O -5.622764 -1.636132 -0.537201
 O 3.110373 -2.419255 6.227418
 O -5.745388 6.776431 -5.627276
 O 1.714073 2.678511 -1.073824
 O -4.977606 0.983515 4.186709
 O 0.256184 5.936824 5.928275
 O -1.503164 -5.872485 -2.518243
 O 3.360662 1.316735 4.713164
 O -2.926446 -6.742165 5.461497
 O 1.807789 -2.506984 3.689447
 O 2.634360 -6.402255 2.257412
 O -3.172908 -3.606702 4.774603
 O -4.490645 -6.989415 -0.001239
 O -3.718675 -4.184552 -4.041553
 O 2.409387 -4.145897 -1.864111
 O -1.701373 3.098435 -1.385144
 O -1.222870 -2.887183 1.612180
 O 0.096955 -4.870111 3.586469
 O 4.335059 -4.195287 -4.573504
 O 4.722253 4.452986 2.157914
 O 5.189639 -3.978251 4.000303
 O -2.463725 -1.966904 -3.016312
 O -1.079463 3.336252 -4.671412
 O 4.445581 1.712449 1.386559
 O 2.937324 1.546648 -3.447808
 O -4.590271 3.508800 -5.391764
 O 4.881975 -5.578855 0.349791
 O 0.661982 -0.730723 -6.054190
 O -2.627569 0.551412 -5.206434
 O 0.581262 -0.795161 1.673425
 O 5.974824 -2.057687 -3.786330
 O 4.272511 -0.244556 -1.436430
 O 0.283240 4.392210 3.870675
 O -4.642391 0.210694 -3.153503
 O -0.058458 -4.058724 -0.778872
 O 5.474262 4.068670 -7.532646
 O 3.995288 6.582822 5.472780
 O -5.789807 5.792945 -2.206149
 O -0.014093 1.171110 -2.698156
 O -4.327890 -4.182039 -0.901386
 O -2.940375 5.833640 2.683192
 O -2.864678 2.988568 3.718986
 O -2.089829 -1.294381 -0.455313
 O -1.716061 -1.467365 5.289261
 O 0.399743 2.345517 5.544416
 O -4.470708 2.955597 1.697703
 O 3.663134 5.097684 -1.946959
 O 1.265946 -5.667016 -3.641051
 O -3.032509 4.649793 -3.247044
 O 5.594280 1.175368 6.719502
 O -1.364206 0.915601 2.153890
 O 0.195715 -1.758318 -3.592315
 O 0.168623 -3.719123 -5.596588
 O 7.255126 -6.510790 4.018900
 O 3.832403 -2.856133 1.250794
 O 6.059294 -1.407965 2.961481
 O 1.695660 3.872322 -4.057498
 O -1.694972 -7.512995 0.825728
 O -4.593852 -1.335762 -7.013854
 O -4.398954 1.478285 -0.708846
 O 5.133021 3.726034 -4.540501
 O 1.439968 -1.142187 -1.177347
 O -5.086702 -4.072436 2.232086
 O 1.749621 2.830970 2.234798
 H -5.088294 -2.466161 -0.618766
 H -4.958278 -1.076385 -0.046949
 H 2.555021 -2.194457 6.995560
 H 2.496735 -2.503535 5.471240
 H -5.337859 5.908940 -5.403765
 H -5.090581 7.392294 -5.178993
 H 2.382471 3.359387 -1.281553
 H 0.879398 3.123446 -0.812855
 H -5.547739 0.252795 4.486438
 H -4.237022 0.774056 4.765095
 H 0.456702 6.896176 5.894832
 H 0.403323 5.614856 6.833367
 H -1.341292 -6.816650 -2.357784
 H -0.869924 -5.624351 -3.216064
 H 3.800182 1.902265 4.065132
 H 3.521538 0.385524 4.487160
 H -3.194854 -7.405749 6.142984
 H -2.124338 -6.290373 5.780135
 H 1.408259 -1.776584 3.185236
 H 2.694604 -2.586830 3.236310
 H 1.956846 -5.844840 2.711643
 H 2.999504 -5.906458 1.496867
 H -3.191567 -4.576042 4.856241
 H -3.202555 -3.657005 3.796388
 H -4.640714 -7.950713 0.051128
 H -4.947135 -6.586166 -0.747026
 H -3.267992 -3.348724 -3.731103
 H -3.256667 -4.975427 -3.709995
 H 2.984792 -3.533486 -2.343540
 H 1.651704 -3.768315 -1.328241
 H -1.772256 3.658649 -2.165813
 H -1.548489 3.707650 -0.592458
 H -1.484059 -2.255587 0.907151
 H -0.370000 -2.455392 1.772069
 H 0.645947 -4.088040 3.321697
 H -0.602889 -4.970298 2.921651
 H 4.711255 -5.051880 -4.883219
 H 3.852455 -3.808163 -5.383214
 H 3.940645 4.881466 2.568958
 H 5.385176 5.167163 2.328848
 H 5.573746 -3.105293 4.225070
 H 4.798132 -4.326601 4.832493
 H -1.500608 -2.000562 -3.338580
 H -2.860719 -1.231622 -3.554839
 H -0.095092 3.275125 -4.603852
 H -1.293412 2.376237 -4.825173
 H 5.214991 2.302999 1.485079
 H 3.652616 2.276813 1.350381
 H 2.415987 0.733153 -3.333131
 H 2.350652 2.329728 -3.594845
 H -5.049865 3.857588 -6.181889
 H -5.111371 2.680261 -5.318802
 H 5.056922 -6.394360 0.857118
 H 5.772546 -5.243982 0.139771
 H 0.035995 -0.716976 -6.825325
 H 1.215178 0.080208 -6.151406
 H -2.876305 -0.186012 -5.815818
 H -3.387326 1.160139 -5.255752
 H -0.207220 -0.227273 1.819894
 H 0.935676 -0.696964 0.758055
 H 5.473692 -2.897218 -4.075552
 H 6.463630 -2.329865 -2.978023
 H 4.312698 0.446467 -0.733725
 H 5.147348 -0.717394 -1.393799
 H 0.144257 5.165227 4.490639
 H -0.703861 4.116166 3.836888
 H -4.278131 -0.089467 -2.300186
 H -5.360522 -0.436044 -3.308292
 H -0.513172 -4.094806 -1.643752
 H -0.718325 -3.639497 -0.177531
 H 5.492864 5.030509 -7.304583
 H 5.321525 4.089322 -8.510901
 H 3.285835 6.059347 5.035493
 H 3.957381 6.299638 6.418894
 H -6.112169 4.865880 -2.440291
 H -4.802362 5.772973 -2.296132
 H -0.905581 1.573798 -2.537134
 H 0.597516 1.782735 -2.236105
 H -3.664599 -4.094014 -1.616810
 H -4.032749 -4.408862 -0.008172
 H -3.547277 5.589960 1.952754
 H -3.584612 6.040084 3.420514
 H -2.660348 3.683547 3.043783
 H -3.497859 3.441265 4.313341
 H -2.058935 -1.419014 -1.434243
 H -2.095234 -0.316004 -0.431204
 H -2.037158 -1.847448 4.453178
 H -1.663508 -2.252254 5.870890
 H 0.831046 2.968867 4.906079
 H -0.479187 2.734643 5.463439
 H -4.587917 2.662824 2.627009
 H -3.779128 2.378074 1.337656
 H 3.793213 5.894831 -1.375001
 H 3.976512 5.382875 -2.825420
 H 0.733692 -4.866940 -3.711367
 H 1.764365 -5.504248 -2.784531
 H -3.913768 4.413664 -3.606088
 H -2.383894 4.094879 -3.763596
 H 5.256373 0.655242 7.468866
 H 4.759652 1.290448 6.162095
 H -2.046839 1.578384 2.436513
 H -0.651715 1.445309 1.663249
 H 0.695046 -1.460927 -2.784318
 H 0.208417 -1.152986 -4.377428
 H 0.712573 -3.460040 -4.825737
 H 0.570053 -3.112835 -6.249081
 H 7.201348 -6.352493 4.983215
 H 6.875360 -5.689833 3.645198
 H 4.291416 -3.711335 1.133993
 H 3.630491 -2.473108 0.376718
 H 6.324230 -0.626953 2.428444
 H 5.122522 -1.534253 2.651551
 H 1.662549 3.678922 -5.019793
 H 1.655857 4.847992 -4.020464
 H -1.147614 -7.315698 1.611790
 H -2.256296 -6.718510 0.696816
 H -5.399131 -1.500912 -6.487490
 H -4.100709 -2.181503 -6.938144
 H -4.364344 2.339192 -1.171625
 H -5.276145 1.076038 -0.863503
 H 4.524709 4.253648 -5.105941
 H 5.153110 2.891163 -5.082525
 H 2.437873 -1.006465 -1.139380
 H 1.182762 -0.248750 -1.533786
 H -4.131037 -3.817164 2.306395
 H -5.497539 -3.204100 2.014070
 H 1.858824 3.782916 2.386136
 H 1.486636 2.810972 1.289939
K_POINTS
 1
0.0 0.0 0.0 1.0