
&control
    calculation='scf'
    pseudo_dir = './',
    outdir='./outputs',
    disk_io='high'
/
&system
    ibrav= 1, celldm(1)=20.000000, nat=  192, ntyp= 2,
    ecutwfc = 30.0, nosym=.true., occupations='smearing',
    smearing='m-v', degauss=0.025
/
&electrons
    conv_thr =  1.0d-8,
    mixing_beta = 0.7
/
&ions
    pot_extrapolation='second-order'
    wfc_extrapolation='second-order'
    ion_temperature = 'andersen'
    tempw = 1000

/
ATOMIC_SPECIES
 H  1.01  H.blyp-hgh.UPF
 O  16.0  O.blyp-hgh.UPF
ATOMIC_POSITIONS bohr
 O -5.628179 -1.636938 -0.518009
 O 3.141050 -2.405896 6.241137
 O -5.756546 6.795708 -5.641262
 O 1.738246 2.666757 -1.069956
 O -4.976625 0.981809 4.213024
 O 0.268931 5.936510 5.951504
 O -1.507682 -5.878234 -2.516572
 O 3.385198 1.314845 4.723494
 O -2.911960 -6.748790 5.466657
 O 1.791772 -2.497120 3.678530
 O 2.620813 -6.374250 2.252088
 O -3.153344 -3.611507 4.793390
 O -4.463287 -6.983107 -0.011145
 O -3.706438 -4.166580 -4.062356
 O 2.414747 -4.175249 -1.862927
 O -1.691615 3.095174 -1.392230
 O -1.217555 -2.885029 1.603173
 O 0.077181 -4.868391 3.587560
 O 4.332147 -4.181290 -4.556293
 O 4.735936 4.431871 2.158908
 O 5.174972 -3.982554 4.021148
 O -2.462897 -1.941149 -3.013390
 O -1.075134 3.334929 -4.693464
 O 4.453310 1.707339 1.356080
 O 2.953622 1.554355 -3.449617
 O -4.594494 3.521638 -5.405015
 O 4.871925 -5.563317 0.379277
 O 0.654228 -0.745195 -6.074858
 O -2.647781 0.557607 -5.214547
 O 0.583538 -0.808737 1.677986
 O 6.000066 -2.041893 -3.771922
 O 4.263875 -0.250894 -1.439942
 O 0.259576 4.386298 3.853746
 O -4.655884 0.185576 -3.140477
 O -0.067482 -4.072522 -0.777719
 O 5.497955 4.049884 -7.566233
 O 4.000234 6.568928 5.462687
 O -5.813543 5.811738 -2.200541
 O -0.010756 1.175971 -2.700187
 O -4.349442 -4.189966 -0.885942
 O -2.945186 5.860562 2.686710
 O -2.857206 2.970407 3.705249
 O -2.115661 -1.252319 -0.447515
 O -1.725036 -1.456095 5.295691
 O 0.418639 2.344476 5.533172
 O -4.473910 2.940621 1.714218
 O 3.660054 5.115419 -1.949586
 O 1.247618 -5.668066 -3.629235
 O -3.071009 4.656702 -3.257997
 O 5.611926 1.183393 6.725322
 O -1.361636 0.952799 2.165713
 O 0.201387 -1.763365 -3.589371
 O 0.164786 -3.736468 -5.596802
 O 7.248098 -6.512069 4.023800
 O 3.838879 -2.857597 1.255825
 O 6.048160 -1.412436 2.953339
 O 1.703955 3.880159 -4.049878
 O -1.673308 -7.529923 0.811480
 O -4.575876 -1.330707 -7.026973
 O -4.406868 1.470259 -0.704395
 O 5.114319 3.737638 -4.569850
 O 1.442529 -1.144138 -1.156030
 O -5.086018 -4.102049 2.207733
 O 1.750190 2.819620 2.238929
 H -5.103446 -2.474645 -0.641658
 H -5.033396 -1.115779 0.079405
 H 2.561629 -2.118610 6.981078
 H 2.537211 -2.504158 5.470864
 H -5.334017 5.944286 -5.395151
 H -5.057162 7.383423 -5.220808
 H 2.356794 3.406952 -1.290678
 H 0.882578 3.061991 -0.822229
 H -5.545891 0.218882 4.474481
 H -4.194783 0.780412 4.766332
 H 0.429374 6.901252 5.913042
 H 0.442459 5.570875 6.829669
 H -1.438346 -6.834527 -2.371359
 H -0.867843 -5.633877 -3.196874
 H 3.804655 1.890279 4.032517
 H 3.593363 0.391681 4.495877
 H -3.233286 -7.395142 6.139355
 H -2.114100 -6.330981 5.835703
 H 1.354074 -1.760124 3.185146
 H 2.676650 -2.639036 3.217292
 H 1.963575 -5.770042 2.676549
 H 2.963668 -5.906669 1.469206
 H -3.186051 -4.579678 4.907428
 H -3.225691 -3.671154 3.810503
 H -4.662837 -7.937004 -0.013323
 H -4.956791 -6.523374 -0.713739
 H -3.340267 -3.307484 -3.715277
 H -3.218220 -4.958218 -3.777289
 H 2.966605 -3.513619 -2.314035
 H 1.641163 -3.823765 -1.325758
 H -1.712818 3.640222 -2.208133
 H -1.539345 3.765593 -0.660222
 H -1.501661 -2.245779 0.886938
 H -0.344830 -2.487153 1.738808
 H 0.676250 -4.143044 3.304668
 H -0.638679 -4.956956 2.943382
 H 4.654837 -5.044977 -4.866936
 H 3.856467 -3.869177 -5.400989
 H 3.953108 4.895600 2.528810
 H 5.414137 5.151502 2.285802
 H 5.522177 -3.115394 4.321180
 H 4.850667 -4.388370 4.857029
 H -1.510894 -2.037729 -3.343587
 H -2.829600 -1.236068 -3.603697
 H -0.082268 3.339786 -4.656389
 H -1.278763 2.353341 -4.762364
 H 5.210001 2.315657 1.456362
 H 3.659357 2.272518 1.324889
 H 2.400579 0.777086 -3.289713
 H 2.331679 2.308432 -3.581748
 H -5.014404 3.905915 -6.203618
 H -5.131415 2.700670 -5.289229
 H 5.043377 -6.408733 0.837309
 H 5.776723 -5.247885 0.190203
 H 0.056409 -0.710318 -6.854050
 H 1.177559 0.080716 -6.097277
 H -2.853023 -0.201945 -5.823652
 H -3.423700 1.144630 -5.285830
 H -0.231413 -0.282889 1.832221
 H 0.925166 -0.674173 0.764459
 H 5.419717 -2.841067 -4.015803
 H 6.458256 -2.380578 -2.974866
 H 4.357787 0.424445 -0.736316
 H 5.092798 -0.752816 -1.407609
 H 0.146790 5.182132 4.421895
 H -0.719427 4.141212 3.781813
 H -4.281789 -0.096014 -2.282610
 H -5.364591 -0.473043 -3.291892
 H -0.512141 -4.116997 -1.642274
 H -0.673954 -3.594552 -0.160818
 H 5.433972 5.009282 -7.334812
 H 5.302656 4.098055 -8.539058
 H 3.319765 6.064155 4.982416
 H 4.048446 6.262339 6.393766
 H -6.017745 4.872754 -2.463812
 H -4.853375 5.761698 -2.296982
 H -0.882341 1.588367 -2.461878
 H 0.620245 1.762966 -2.218801
 H -3.666947 -4.122524 -1.598284
 H -4.022568 -4.423404 -0.012393
 H -3.509287 5.590451 1.939323
 H -3.624849 6.067841 3.384869
 H -2.748632 3.669010 2.991735
 H -3.451267 3.397078 4.355536
 H -2.069544 -1.401171 -1.426340
 H -2.128389 -0.275554 -0.423318
 H -2.026041 -1.820626 4.449628
 H -1.677260 -2.275015 5.832594
 H 0.802121 2.963572 4.860761
 H -0.436411 2.781185 5.402391
 H -4.524971 2.653595 2.645590
 H -3.786310 2.370320 1.331587
 H 3.760254 5.879952 -1.352718
 H 3.994686 5.394427 -2.812082
 H 0.718920 -4.855149 -3.677174
 H 1.748845 -5.532232 -2.781648
 H -3.937036 4.409181 -3.613258
 H -2.441070 4.078711 -3.745333
 H 5.265610 0.668105 7.491500
 H 4.767695 1.361115 6.206301
 H -2.060709 1.603438 2.415169
 H -0.644257 1.382306 1.656778
 H 0.739607 -1.501483 -2.799577
 H 0.224692 -1.138662 -4.346809
 H 0.645712 -3.432255 -4.799667
 H 0.514871 -3.055945 -6.213814
 H 7.243471 -6.378845 4.991920
 H 6.861457 -5.693829 3.658247
 H 4.256406 -3.741490 1.169256
 H 3.639132 -2.451843 0.394773
 H 6.398065 -0.646814 2.458467
 H 5.164925 -1.576231 2.530847
 H 1.657042 3.719459 -5.018050
 H 1.696826 4.857258 -4.052580
 H -1.135601 -7.403610 1.619875
 H -2.242404 -6.730287 0.772294
 H -5.362521 -1.444718 -6.465696
 H -4.080831 -2.175544 -6.896458
 H -4.417025 2.305057 -1.217450
 H -5.248562 1.036844 -0.963836
 H 4.428291 4.183715 -5.118770
 H 5.163703 2.902992 -5.090661
 H 2.430613 -1.010723 -1.099545
 H 1.180012 -0.247169 -1.485260
 H -4.178636 -3.767578 2.416792
 H -5.498446 -3.220148 2.029075
 H 1.910826 3.767854 2.386502
 H 1.588409 2.755242 1.261580
K_POINTS
 1
0.0 0.0 0.0 1.0