
&control
    calculation='scf'
    pseudo_dir = './',
    outdir='./outputs',
    disk_io='high'
/
&system
    ibrav= 1, celldm(1)=20.000000, nat=  192, ntyp= 2,
    ecutwfc = 30.0, nosym=.true., occupations='smearing',
    smearing='m-v', degauss=0.025
/
&electrons
    conv_thr =  1.0d-8,
    mixing_beta = 0.7
/
&ions
    pot_extrapolation='second-order'
    wfc_extrapolation='second-order'
    ion_temperature = 'andersen'
    tempw = 1000

/
ATOMIC_SPECIES
 H  1.01  H.blyp-hgh.UPF
 O  16.0  O.blyp-hgh.UPF
ATOMIC_POSITIONS bohr
 O -5.637045 -1.639094 -0.448765
 O 3.238147 -2.363486 6.288579
 O -5.764902 6.853167 -5.680282
 O 1.820885 2.637762 -1.045171
 O -4.971001 0.981314 4.301276
 O 0.305119 5.932867 6.015295
 O -1.532961 -5.872008 -2.503646
 O 3.480618 1.312263 4.760240
 O -2.859312 -6.764151 5.497575
 O 1.742914 -2.469283 3.640846
 O 2.569858 -6.274829 2.236049
 O -3.090328 -3.659465 4.844167
 O -4.361463 -6.957481 -0.027657
 O -3.684529 -4.114711 -4.145991
 O 2.440163 -4.278351 -1.844504
 O -1.642805 3.096970 -1.414214
 O -1.203530 -2.872975 1.552312
 O 0.021818 -4.874552 3.595419
 O 4.307888 -4.135137 -4.510399
 O 4.790954 4.383283 2.167733
 O 5.125625 -3.985742 4.106948
 O -2.455592 -1.857052 -3.023744
 O -1.074833 3.317319 -4.761828
 O 4.484722 1.680093 1.245488
 O 3.009359 1.571506 -3.463308
 O -4.602486 3.564289 -5.457045
 O 4.842273 -5.511776 0.482665
 O 0.643014 -0.790858 -6.136164
 O -2.712345 0.576051 -5.245461
 O 0.600266 -0.858687 1.702483
 O 6.077785 -2.007502 -3.712821
 O 4.221839 -0.273364 -1.442716
 O 0.165458 4.375988 3.781840
 O -4.706458 0.095460 -3.096359
 O -0.084752 -4.114217 -0.767815
 O 5.565134 3.989479 -7.672586
 O 4.022833 6.524800 5.429287
 O -5.889503 5.853659 -2.202060
 O 0.001263 1.192603 -2.695917
 O -4.433582 -4.205773 -0.841380
 O -2.960460 5.961087 2.696140
 O -2.812349 2.924976 3.654432
 O -2.201908 -1.102594 -0.423722
 O -1.744084 -1.421688 5.318794
 O 0.480758 2.363794 5.483074
 O -4.495072 2.893672 1.761788
 O 3.633833 5.161793 -1.949101
 O 1.175821 -5.688889 -3.593543
 O -3.212416 4.675649 -3.297223
 O 5.656660 1.210170 6.755913
 O -1.361016 1.054185 2.204487
 O 0.217594 -1.803076 -3.580727
 O 0.163378 -3.778075 -5.602384
 O 7.217642 -6.504140 4.028815
 O 3.859481 -2.855914 1.299500
 O 5.998767 -1.431456 2.909067
 O 1.723047 3.926856 -4.057929
 O -1.582154 -7.594097 0.753203
 O -4.518755 -1.325216 -7.050454
 O -4.449430 1.441683 -0.699441
 O 5.032501 3.792624 -4.680747
 O 1.459059 -1.135248 -1.083612
 O -5.059824 -4.172403 2.117329
 O 1.761383 2.774766 2.225011
 H -5.177898 -2.476133 -0.683884
 H -5.324575 -1.309634 0.423889
 H 2.624162 -1.852121 6.845464
 H 2.700661 -2.449243 5.471379
 H -5.442151 5.992687 -5.329541
 H -5.052413 7.465641 -5.377986
 H 2.222101 3.483399 -1.345181
 H 0.893485 2.929059 -0.858228
 H -5.486771 0.177606 4.406033
 H -4.117010 0.797271 4.693156
 H 0.346672 6.922241 6.114973
 H 0.575490 5.543427 6.863571
 H -1.769233 -6.820227 -2.459308
 H -0.790120 -5.805344 -3.157543
 H 3.769246 1.777134 3.957050
 H 3.825148 0.431901 4.507352
 H -3.286560 -7.351469 6.157002
 H -2.042500 -6.546100 6.015852
 H 1.288952 -1.761269 3.160762
 H 2.510332 -2.756525 3.120644
 H 1.953494 -5.588283 2.561404
 H 2.848299 -5.886947 1.378194
 H -3.166008 -4.577053 5.196610
 H -3.262224 -3.626181 3.898686
 H -4.741945 -7.844751 -0.193473
 H -5.008454 -6.418307 -0.532518
 H -3.477549 -3.287173 -3.649405
 H -3.004802 -4.792677 -3.924201
 H 2.833135 -3.460213 -2.188903
 H 1.640384 -3.965708 -1.350211
 H -1.556099 3.483085 -2.293148
 H -1.572439 3.906889 -0.835079
 H -1.621910 -2.254109 0.908025
 H -0.272464 -2.571176 1.674675
 H 0.692927 -4.233575 3.265998
 H -0.739322 -4.858339 2.977576
 H 4.661450 -5.040261 -4.679222
 H 3.853814 -3.911732 -5.345259
 H 3.973200 4.927387 2.337898
 H 5.551027 4.992921 2.167608
 H 5.370983 -3.160041 4.560064
 H 5.001641 -4.632612 4.844854
 H -1.542507 -2.106046 -3.311010
 H -2.735880 -1.197599 -3.705441
 H -0.130311 3.526285 -4.768368
 H -1.185693 2.370815 -4.587171
 H 5.180489 2.360330 1.353863
 H 3.692786 2.244247 1.286205
 H 2.385965 0.885981 -3.136778
 H 2.331755 2.280466 -3.538990
 H -4.989208 3.962741 -6.257499
 H -5.206833 2.833537 -5.229682
 H 4.953628 -6.460703 0.724049
 H 5.764620 -5.230029 0.327994
 H 0.039613 -0.664154 -6.911904
 H 1.019791 0.107680 -5.974462
 H -2.738102 -0.175323 -5.871947
 H -3.558784 1.042492 -5.354048
 H -0.302321 -0.496753 1.869051
 H 0.852128 -0.642145 0.777919
 H 5.273958 -2.566270 -3.891487
 H 6.467547 -2.537433 -2.985279
 H 4.490790 0.369909 -0.736917
 H 4.983272 -0.932174 -1.436945
 H 0.218343 5.248827 4.257472
 H -0.778301 4.174630 3.560384
 H -4.289906 -0.097000 -2.238617
 H -5.388620 -0.589638 -3.279087
 H -0.603326 -4.226524 -1.586830
 H -0.492423 -3.493817 -0.121786
 H 5.246410 4.880606 -7.417596
 H 5.297368 4.021177 -8.616415
 H 3.383796 6.041360 4.870420
 H 4.269925 6.043694 6.247107
 H -5.916073 4.915705 -2.518059
 H -4.883950 5.904384 -2.358863
 H -0.760466 1.587642 -2.202981
 H 0.714192 1.686385 -2.229641
 H -3.674363 -4.263389 -1.455044
 H -3.933237 -4.470286 -0.027349
 H -3.434863 5.596333 1.908434
 H -3.767495 6.088168 3.287821
 H -3.101367 3.584554 2.979909
 H -3.244357 3.235984 4.476296
 H -2.161786 -1.376808 -1.376724
 H -2.250466 -0.133767 -0.333816
 H -1.993911 -1.676083 4.404407
 H -1.708525 -2.322895 5.705398
 H 0.882310 2.830748 4.704129
 H -0.398940 2.780873 5.381737
 H -4.344919 2.584060 2.692273
 H -3.886779 2.321909 1.252366
 H 3.709193 5.901457 -1.300615
 H 4.099145 5.449097 -2.763483
 H 0.748580 -4.823602 -3.622502
 H 1.742828 -5.559004 -2.782680
 H -4.049294 4.329844 -3.714452
 H -2.600281 4.055033 -3.797713
 H 5.325399 0.754145 7.539501
 H 4.852225 1.539597 6.285801
 H -2.038521 1.733110 2.389454
 H -0.616654 1.391200 1.635791
 H 0.862634 -1.601229 -2.857884
 H 0.322789 -1.066093 -4.244956
 H 0.343791 -3.329466 -4.722073
 H 0.261920 -2.948800 -6.122230
 H 7.352228 -6.367516 4.989938
 H 6.797139 -5.653996 3.742004
 H 4.115009 -3.794640 1.176175
 H 3.716123 -2.474538 0.413237
 H 6.609042 -0.718187 2.604817
 H 5.402312 -1.702912 2.146300
 H 1.692092 3.730724 -5.022055
 H 1.821267 4.908245 -3.998306
 H -1.097151 -7.696836 1.596744
 H -2.136279 -6.823943 0.966538
 H -5.229897 -1.242115 -6.378539
 H -4.045804 -2.144310 -6.815471
 H -4.496890 2.175019 -1.348194
 H -5.096516 0.918163 -1.239369
 H 4.145714 3.936114 -5.076750
 H 5.275754 2.883133 -5.040473
 H 2.445633 -1.014705 -1.008483
 H 1.103168 -0.244822 -1.311154
 H -4.402160 -3.752919 2.717359
 H -5.628457 -3.355652 2.126030
 H 1.989621 3.707229 2.373885
 H 1.960566 2.604616 1.282514
K_POINTS
 1
0.0 0.0 0.0 1.0