
&control
    calculation='scf'
    pseudo_dir = './',
    outdir='./outputs',
    disk_io='high'
/
&system
    ibrav= 1, celldm(1)=20.000000, nat=  192, ntyp= 2,
    ecutwfc = 30.0, nosym=.true., occupations='smearing',
    smearing='m-v', degauss=0.025
/
&electrons
    conv_thr =  1.0d-8,
    mixing_beta = 0.7
/
&ions
    pot_extrapolation='second-order'
    wfc_extrapolation='second-order'
    ion_temperature = 'andersen'
    tempw = 1000

/
ATOMIC_SPECIES
 H  1.01  H.blyp-hgh.UPF
 O  16.0  O.blyp-hgh.UPF
ATOMIC_POSITIONS bohr
 O -5.657092 -1.630790 -0.386394
 O 3.313881 -2.318747 6.323668
 O -5.750583 6.889576 -5.715246
 O 1.875477 2.630720 -1.008192
 O -4.969647 1.011317 4.359354
 O 0.329717 5.938235 6.067908
 O -1.549107 -5.846582 -2.503996
 O 3.585396 1.301729 4.784063
 O -2.799949 -6.771592 5.562785
 O 1.700996 -2.469230 3.622534
 O 2.525907 -6.178468 2.209418
 O -3.034353 -3.708327 4.913892
 O -4.279833 -6.937832 -0.036581
 O -3.671702 -4.084554 -4.227241
 O 2.467569 -4.356632 -1.803773
 O -1.582247 3.110733 -1.431869
 O -1.200594 -2.880581 1.497695
 O -0.018609 -4.892941 3.596895
 O 4.282469 -4.107211 -4.457628
 O 4.836596 4.349871 2.166162
 O 5.089932 -3.983945 4.191605
 O -2.453404 -1.790406 -3.050103
 O -1.110867 3.308268 -4.811506
 O 4.522317 1.652389 1.137043
 O 3.036129 1.573345 -3.483209
 O -4.601325 3.608029 -5.507557
 O 4.819779 -5.474657 0.576984
 O 0.650270 -0.811133 -6.182318
 O -2.761690 0.591743 -5.272047
 O 0.614515 -0.898901 1.732420
 O 6.132663 -1.996050 -3.643071
 O 4.191493 -0.310689 -1.426239
 O 0.081486 4.376376 3.692428
 O -4.756233 0.025242 -3.062137
 O -0.072258 -4.150110 -0.760707
 O 5.606734 3.928342 -7.750371
 O 4.047977 6.475863 5.407355
 O -5.916296 5.866884 -2.230350
 O 0.013340 1.207220 -2.669716
 O -4.482870 -4.221083 -0.795347
 O -2.986386 6.052580 2.690234
 O -2.761555 2.905310 3.616529
 O -2.274823 -0.977182 -0.385327
 O -1.747904 -1.398622 5.327758
 O 0.544145 2.390999 5.433538
 O -4.521432 2.852227 1.799404
 O 3.596049 5.198843 -1.940427
 O 1.101239 -5.726772 -3.554685
 O -3.356956 4.661158 -3.356482
 O 5.697859 1.249465 6.794753
 O -1.353372 1.118350 2.221912
 O 0.245489 -1.846800 -3.577008
 O 0.163276 -3.779130 -5.591402
 O 7.183304 -6.467428 4.019775
 O 3.878532 -2.851369 1.351275
 O 5.952321 -1.457005 2.842502
 O 1.732387 3.981503 -4.095349
 O -1.481507 -7.659984 0.699966
 O -4.481443 -1.327229 -7.046980
 O -4.513622 1.419035 -0.727322
 O 4.942520 3.849293 -4.792050
 O 1.480656 -1.118861 -1.015559
 O -5.029032 -4.187561 2.041164
 O 1.785594 2.721196 2.192406
 H -5.181015 -2.484600 -0.586087
 H -5.556241 -1.588616 0.584954
 H 2.719947 -1.625276 6.697343
 H 2.882532 -2.386835 5.424063
 H -5.620427 6.061115 -5.220760
 H -5.120656 7.591798 -5.448210
 H 2.182904 3.471366 -1.443124
 H 0.932418 2.829046 -0.849537
 H -5.400666 0.126361 4.398655
 H -4.048156 0.731579 4.612837
 H 0.289403 6.885883 6.358630
 H 0.694182 5.618998 6.917941
 H -2.123784 -6.664227 -2.572728
 H -0.733527 -6.097933 -3.017124
 H 3.682843 1.762382 3.919340
 H 3.976627 0.421412 4.602968
 H -3.320153 -7.325802 6.168641
 H -1.927962 -6.773673 6.031646
 H 1.326955 -1.722963 3.037112
 H 2.381242 -2.756924 2.964886
 H 1.860237 -5.540959 2.539469
 H 2.764363 -5.878523 1.316424
 H -3.145925 -4.588032 5.344604
 H -3.226840 -3.711346 3.967209
 H -4.715590 -7.784381 -0.248267
 H -4.998491 -6.318436 -0.331684
 H -3.495864 -3.309421 -3.629676
 H -2.821466 -4.546092 -4.003559
 H 2.739923 -3.477669 -2.140470
 H 1.594918 -4.137401 -1.338731
 H -1.439621 3.291007 -2.395443
 H -1.645409 3.919269 -0.866480
 H -1.707836 -2.196883 0.968190
 H -0.277814 -2.528845 1.610441
 H 0.584239 -4.170692 3.314005
 H -0.781365 -4.734833 2.998661
 H 4.787896 -4.923733 -4.437739
 H 3.807303 -3.798858 -5.273165
 H 4.076342 4.985823 2.164396
 H 5.680811 4.835829 2.128220
 H 5.254422 -3.181562 4.717225
 H 5.068018 -4.801585 4.736994
 H -1.520072 -2.066251 -3.245696
 H -2.667709 -1.086450 -3.709298
 H -0.174092 3.609779 -4.781121
 H -1.028039 2.367761 -4.500323
 H 5.199118 2.347414 1.257837
 H 3.708004 2.165294 1.293050
 H 2.546192 0.895975 -2.991348
 H 2.490007 2.381185 -3.542530
 H -5.105656 3.893038 -6.328312
 H -5.288616 2.940978 -5.252110
 H 4.838308 -6.454998 0.578350
 H 5.735530 -5.168721 0.423994
 H -0.034851 -0.648050 -6.859022
 H 0.859728 0.119130 -5.967581
 H -2.618779 -0.094546 -5.975526
 H -3.688615 0.887284 -5.379932
 H -0.319491 -0.655077 1.893211
 H 0.782321 -0.710440 0.788011
 H 5.229398 -2.302756 -3.907727
 H 6.512631 -2.663107 -3.046313
 H 4.544468 0.315391 -0.766183
 H 4.844775 -1.012693 -1.453153
 H 0.182085 5.240779 4.126074
 H -0.827281 4.256563 3.466582
 H -4.277924 -0.201223 -2.245758
 H -5.410440 -0.703754 -3.243213
 H -0.797041 -4.346870 -1.396244
 H -0.404401 -3.468409 -0.133477
 H 5.154346 4.729635 -7.460856
 H 5.363647 3.828618 -8.699665
 H 3.400903 5.985845 4.870255
 H 4.351827 5.790930 6.029957
 H -6.087887 4.971033 -2.528256
 H -5.048421 6.235913 -2.405492
 H -0.656090 1.523259 -2.022184
 H 0.852252 1.628366 -2.337198
 H -3.766599 -4.378360 -1.441590
 H -4.006905 -4.450183 0.036762
 H -3.409548 5.639376 1.905807
 H -3.814113 6.056970 3.252827
 H -3.345880 3.535292 3.100521
 H -2.977990 3.070750 4.561250
 H -2.312654 -1.238709 -1.343968
 H -2.389483 -0.016198 -0.300769
 H -1.971005 -1.439309 4.378000
 H -1.745748 -2.339793 5.605337
 H 1.005197 2.605917 4.607290
 H -0.393287 2.684393 5.492514
 H -4.323827 2.422474 2.656891
 H -4.101499 2.279709 1.114675
 H 3.716538 5.960247 -1.348822
 H 4.213370 5.485962 -2.639359
 H 0.857861 -4.781348 -3.706607
 H 1.771426 -5.538972 -2.841720
 H -4.136088 4.313827 -3.818825
 H -2.675330 4.168955 -3.865382
 H 5.327429 0.828542 7.608192
 H 4.935989 1.556531 6.238206
 H -1.920246 1.885943 2.436389
 H -0.687235 1.579207 1.720387
 H 0.881811 -1.702568 -2.847672
 H 0.364432 -1.084968 -4.176638
 H 0.023851 -3.307821 -4.730164
 H 0.045989 -2.976808 -6.155076
 H 7.397719 -6.291434 4.968964
 H 6.732189 -5.614096 3.827392
 H 3.999293 -3.813183 1.136586
 H 3.800607 -2.545526 0.428836
 H 6.690502 -0.823209 2.747374
 H 5.676028 -1.711636 1.942597
 H 1.778512 3.696787 -5.028986
 H 1.904183 4.928728 -3.874856
 H -1.008035 -7.972876 1.499402
 H -1.990978 -6.900657 1.033920
 H -5.072132 -1.072814 -6.309227
 H -4.032557 -2.167674 -6.795861
 H -4.364408 2.148764 -1.362712
 H -4.945808 0.734031 -1.286790
 H 3.982501 3.660725 -4.936244
 H 5.353400 2.960626 -4.907426
 H 2.451818 -0.912327 -0.997220
 H 1.036088 -0.267172 -1.195720
 H -4.598983 -3.953136 2.896038
 H -5.860709 -3.650173 2.189429
 H 1.932659 3.690434 2.346451
 H 2.232726 2.526556 1.337502
K_POINTS
 1
0.0 0.0 0.0 1.0