
&control
    calculation='scf'
    pseudo_dir = './',
    outdir='./outputs',
    disk_io='high'
/
&system
    ibrav= 1, celldm(1)=20.000000, nat=  192, ntyp= 2,
    ecutwfc = 30.0, nosym=.true., occupations='smearing',
    smearing='m-v', degauss=0.025
/
&electrons
    conv_thr =  1.0d-8,
    mixing_beta = 0.7
/
&ions
    pot_extrapolation='second-order'
    wfc_extrapolation='second-order'
    ion_temperature = 'andersen'
    tempw = 1000

/
ATOMIC_SPECIES
 H  1.01  H.blyp-hgh.UPF
 O  16.0  O.blyp-hgh.UPF
ATOMIC_POSITIONS bohr
 O -5.667720 -1.629049 -0.354922
 O 3.343110 -2.289527 6.333394
 O -5.745163 6.904831 -5.738236
 O 1.897298 2.633681 -0.989912
 O -4.963982 1.025057 4.382927
 O 0.340709 5.945267 6.102455
 O -1.556204 -5.839134 -2.511855
 O 3.640916 1.296278 4.790985
 O -2.768271 -6.775299 5.605295
 O 1.685778 -2.470596 3.602966
 O 2.506634 -6.134374 2.195477
 O -3.008649 -3.724853 4.956531
 O -4.247527 -6.927397 -0.038681
 O -3.657534 -4.071094 -4.257909
 O 2.475570 -4.384964 -1.773442
 O -1.549048 3.112266 -1.444901
 O -1.206814 -2.889537 1.469413
 O -0.035723 -4.901384 3.591051
 O 4.265200 -4.084524 -4.419470
 O 4.859321 4.333355 2.156817
 O 5.079086 -3.981136 4.222797
 O -2.453926 -1.762193 -3.064404
 O -1.130594 3.298406 -4.829136
 O 4.543439 1.637738 1.082279
 O 3.050121 1.572772 -3.498987
 O -4.613167 3.628353 -5.540805
 O 4.807463 -5.457649 0.620401
 O 0.658816 -0.810893 -6.200252
 O -2.783844 0.595623 -5.287834
 O 0.619662 -0.916466 1.747630
 O 6.153309 -1.992283 -3.609020
 O 4.170333 -0.329678 -1.415181
 O 0.048450 4.374546 3.640709
 O -4.780755 -0.002904 -3.046999
 O -0.061897 -4.166000 -0.762085
 O 5.625378 3.887868 -7.779972
 O 4.058107 6.439477 5.402173
 O -5.940016 5.878970 -2.241066
 O 0.022100 1.212218 -2.651775
 O -4.496631 -4.229209 -0.775579
 O -3.002104 6.094719 2.682489
 O -2.739974 2.906303 3.603307
 O -2.307513 -0.921537 -0.360763
 O -1.744208 -1.385699 5.328738
 O 0.581970 2.392586 5.425292
 O -4.537728 2.833480 1.811033
 O 3.577642 5.218407 -1.936122
 O 1.062941 -5.742804 -3.532592
 O -3.424853 4.648614 -3.386743
 O 5.717449 1.272476 6.820804
 O -1.352520 1.148380 2.224145
 O 0.261821 -1.871942 -3.572112
 O 0.155720 -3.768833 -5.581485
 O 7.166636 -6.438140 4.016874
 O 3.888528 -2.855487 1.369106
 O 5.933948 -1.470301 2.808651
 O 1.734843 3.999305 -4.111498
 O -1.428980 -7.694073 0.675659
 O -4.467164 -1.331157 -7.040201
 O -4.545028 1.412083 -0.743639
 O 4.891154 3.881082 -4.845539
 O 1.493281 -1.109958 -0.981960
 O -5.021929 -4.181713 2.010594
 O 1.802636 2.695169 2.173608
 H -5.178985 -2.482384 -0.526605
 H -5.655475 -1.717412 0.624269
 H 2.786452 -1.545779 6.629304
 H 2.988170 -2.377327 5.406392
 H -5.676518 6.134716 -5.141310
 H -5.151381 7.606578 -5.427764
 H 2.199415 3.432131 -1.482185
 H 0.938476 2.792958 -0.819318
 H -5.355172 0.138484 4.409253
 H -4.057929 0.715903 4.557754
 H 0.249054 6.885200 6.412809
 H 0.753256 5.625997 6.933340
 H -2.299235 -6.513797 -2.621584
 H -0.719183 -6.220263 -2.901622
 H 3.626064 1.750540 3.941023
 H 4.031493 0.412467 4.656968
 H -3.343594 -7.314183 6.172366
 H -1.851571 -6.869344 5.988888
 H 1.353736 -1.722264 3.020723
 H 2.325797 -2.751077 2.930631
 H 1.793269 -5.556047 2.539548
 H 2.715843 -5.852190 1.285583
 H -3.129452 -4.633320 5.352385
 H -3.180894 -3.821282 4.007185
 H -4.664225 -7.787146 -0.248816
 H -4.949908 -6.265634 -0.241073
 H -3.523634 -3.284509 -3.666775
 H -2.768448 -4.465895 -4.070945
 H 2.719375 -3.522104 -2.145790
 H 1.588109 -4.256768 -1.339739
 H -1.399068 3.232585 -2.382332
 H -1.673442 3.913732 -0.883390
 H -1.716906 -2.164581 1.003074
 H -0.291019 -2.464327 1.580286
 H 0.525588 -4.096725 3.391664
 H -0.809147 -4.696984 3.013004
 H 4.851581 -4.854253 -4.394545
 H 3.826847 -3.786602 -5.221565
 H 4.149745 5.036582 2.118560
 H 5.718976 4.769983 2.123736
 H 5.202732 -3.214558 4.806404
 H 5.064490 -4.829073 4.709424
 H -1.501126 -1.999150 -3.209210
 H -2.636339 -1.018639 -3.696084
 H -0.221643 3.646233 -4.768183
 H -0.959922 2.405933 -4.488829
 H 5.227951 2.324444 1.210218
 H 3.727091 2.110248 1.305206
 H 2.647576 0.899926 -2.914237
 H 2.581272 2.428357 -3.534093
 H -5.145193 3.851718 -6.355918
 H -5.280296 2.964681 -5.258025
 H 4.805702 -6.434770 0.502065
 H 5.719698 -5.147794 0.465276
 H -0.098620 -0.684141 -6.824841
 H 0.809832 0.138508 -5.978903
 H -2.564133 -0.024758 -6.011300
 H -3.733972 0.793955 -5.379355
 H -0.319632 -0.685212 1.911261
 H 0.769690 -0.776632 0.785257
 H 5.265594 -2.207633 -3.919752
 H 6.509267 -2.744036 -3.097240
 H 4.555904 0.306602 -0.768326
 H 4.828580 -1.072536 -1.460613
 H 0.124091 5.256070 4.075505
 H -0.898144 4.320471 3.458303
 H -4.254765 -0.306044 -2.282458
 H -5.417036 -0.754786 -3.212477
 H -0.878791 -4.428987 -1.260721
 H -0.389845 -3.480174 -0.135355
 H 5.126721 4.663365 -7.505470
 H 5.403149 3.739504 -8.712541
 H 3.384849 5.980332 4.860064
 H 4.380912 5.694644 5.939316
 H -6.133891 4.988362 -2.554675
 H -5.109732 6.356828 -2.467153
 H -0.597540 1.488930 -1.949813
 H 0.890443 1.609695 -2.409865
 H -3.847548 -4.423134 -1.465830
 H -4.084361 -4.419959 0.118338
 H -3.408370 5.673036 1.880451
 H -3.801940 6.047101 3.267478
 H -3.393444 3.507279 3.203751
 H -2.823958 2.988441 4.578600
 H -2.393490 -1.136008 -1.338710
 H -2.473232 0.042657 -0.302633
 H -1.966302 -1.317384 4.374980
 H -1.787918 -2.346933 5.537338
 H 0.995592 2.517517 4.545931
 H -0.352374 2.664030 5.494084
 H -4.366661 2.282490 2.625689
 H -4.244720 2.266930 1.055055
 H 3.700777 6.009049 -1.356559
 H 4.268825 5.472341 -2.593179
 H 0.928081 -4.807689 -3.799949
 H 1.790920 -5.532958 -2.879963
 H -4.213029 4.324664 -3.888598
 H -2.673406 4.239933 -3.901609
 H 5.311309 0.882542 7.607013
 H 4.988431 1.513701 6.199639
 H -1.870131 1.923942 2.518626
 H -0.663747 1.679195 1.753722
 H 0.862225 -1.757952 -2.808892
 H 0.367756 -1.098217 -4.185409
 H -0.104185 -3.318591 -4.735393
 H -0.012855 -3.036243 -6.214814
 H 7.406106 -6.271970 4.961805
 H 6.686548 -5.592992 3.832011
 H 3.953688 -3.816373 1.167825
 H 3.827248 -2.538986 0.447465
 H 6.715235 -0.873020 2.803156
 H 5.764144 -1.693610 1.872082
 H 1.831375 3.735286 -5.050654
 H 1.938038 4.939897 -3.870782
 H -0.950320 -8.095588 1.424689
 H -1.901048 -6.933341 1.047039
 H -4.989100 -1.012222 -6.270907
 H -4.045895 -2.178767 -6.799532
 H -4.270794 2.128222 -1.348160
 H -4.902800 0.667730 -1.268920
 H 3.967064 3.524407 -4.833918
 H 5.361969 3.006371 -4.847804
 H 2.445877 -0.827242 -1.008087
 H 1.009389 -0.280947 -1.169251
 H -4.691026 -4.092600 2.937485
 H -5.946828 -3.845976 2.206135
 H 1.863425 3.669418 2.326667
 H 2.303784 2.512115 1.364243
K_POINTS
 1
0.0 0.0 0.0 1.0