
&control
    calculation='scf'
    pseudo_dir = './',
    outdir='./outputs',
    disk_io='high'
/
&system
    ibrav= 1, celldm(1)=20.000000, nat=  192, ntyp= 2,
    ecutwfc = 30.0, nosym=.true., occupations='smearing',
    smearing='m-v', degauss=0.025
/
&electrons
    conv_thr =  1.0d-8,
    mixing_beta = 0.7
/
&ions
    pot_extrapolation='second-order'
    wfc_extrapolation='second-order'
    ion_temperature = 'andersen'
    tempw = 1000

/
ATOMIC_SPECIES
 H  1.01  H.blyp-hgh.UPF
 O  16.0  O.blyp-hgh.UPF
ATOMIC_POSITIONS bohr
 O -5.671895 -1.630604 -0.339293
 O 3.355756 -2.274678 6.334824
 O -5.743934 6.910679 -5.750414
 O 1.906274 2.635850 -0.981417
 O -4.959987 1.031450 4.392744
 O 0.345788 5.949235 6.121158
 O -1.560948 -5.837281 -2.516774
 O 3.667173 1.292916 4.796481
 O -2.751663 -6.776176 5.626053
 O 1.678182 -2.470029 3.591812
 O 2.498621 -6.115003 2.188765
 O -2.997653 -3.733949 4.978708
 O -4.233805 -6.922228 -0.038953
 O -3.648789 -4.064602 -4.269641
 O 2.479373 -4.397879 -1.757815
 O -1.533280 3.109559 -1.449309
 O -1.208604 -2.891878 1.455542
 O -0.043163 -4.903216 3.585785
 O 4.257361 -4.072287 -4.395163
 O 4.866973 4.326148 2.150306
 O 5.075699 -3.978860 4.233907
 O -2.454824 -1.749074 -3.071257
 O -1.139879 3.294077 -4.836519
 O 4.554127 1.630085 1.055998
 O 3.058696 1.570764 -3.508059
 O -4.622477 3.637546 -5.559015
 O 4.801365 -5.450451 0.640198
 O 0.663369 -0.807586 -6.207518
 O -2.793693 0.597515 -5.294754
 O 0.621184 -0.924167 1.754523
 O 6.164467 -1.990320 -3.592435
 O 4.160402 -0.339879 -1.409561
 O 0.035349 4.375074 3.616025
 O -4.792059 -0.015399 -3.039510
 O -0.057953 -4.172858 -0.763741
 O 5.635407 3.865592 -7.790576
 O 4.061636 6.419408 5.399854
 O -5.954138 5.888567 -2.244112
 O 0.027445 1.213078 -2.643948
 O -4.503245 -4.232783 -0.763884
 O -3.009318 6.113244 2.676350
 O -2.729218 2.907503 3.599730
 O -2.322456 -0.895597 -0.350527
 O -1.741310 -1.378807 5.327874
 O 0.601323 2.390809 5.424916
 O -4.545907 2.823744 1.816340
 O 3.570494 5.229258 -1.934165
 O 1.045621 -5.749454 -3.521846
 O -3.455570 4.641915 -3.401217
 O 5.727796 1.284086 6.833821
 O -1.350430 1.163080 2.222666
 O 0.268812 -1.883771 -3.570429
 O 0.149980 -3.762414 -5.576058
 O 7.158654 -6.421273 4.016373
 O 3.893236 -2.858698 1.375589
 O 5.927013 -1.475804 2.793021
 O 1.735768 4.005861 -4.118049
 O -1.403642 -7.710910 0.663712
 O -4.462284 -1.332557 -7.035996
 O -4.558724 1.410152 -0.749179
 O 4.865278 3.895396 -4.869776
 O 1.499077 -1.105491 -0.966152
 O -5.021417 -4.177069 1.998596
 O 1.810967 2.684005 2.165893
 H -5.180840 -2.475300 -0.507925
 H -5.700110 -1.766151 0.636697
 H 2.815306 -1.511341 6.601923
 H 3.041350 -2.377845 5.407486
 H -5.695510 6.175479 -5.100625
 H -5.156207 7.612590 -5.404372
 H 2.209286 3.408398 -1.494412
 H 0.946693 2.782017 -0.803559
 H -5.346111 0.144147 4.416167
 H -4.060412 0.717998 4.531457
 H 0.225861 6.890735 6.420049
 H 0.780071 5.621102 6.934658
 H -2.365934 -6.428738 -2.644321
 H -0.721481 -6.268108 -2.840238
 H 3.601806 1.744638 3.942746
 H 4.053212 0.410998 4.674262
 H -3.353652 -7.313075 6.181686
 H -1.824473 -6.911308 5.960353
 H 1.362185 -1.726427 3.031328
 H 2.319783 -2.761087 2.915161
 H 1.756072 -5.567852 2.538149
 H 2.686613 -5.833140 1.275577
 H -3.114581 -4.647709 5.345187
 H -3.152497 -3.879388 4.021144
 H -4.635060 -7.785736 -0.245832
 H -4.915854 -6.250943 -0.201362
 H -3.542622 -3.264362 -3.695570
 H -2.753283 -4.440294 -4.111369
 H 2.711919 -3.546071 -2.152387
 H 1.581727 -4.310179 -1.338848
 H -1.382626 3.223786 -2.381742
 H -1.682290 3.916799 -0.894268
 H -1.715323 -2.158585 1.022290
 H -0.319981 -2.440522 1.566602
 H 0.495301 -4.064434 3.443233
 H -0.819466 -4.688662 3.024485
 H 4.878730 -4.822539 -4.397577
 H 3.837205 -3.787055 -5.217874
 H 4.197380 5.052736 2.107737
 H 5.745827 4.748945 2.122697
 H 5.180767 -3.236020 4.852421
 H 5.052359 -4.834178 4.710691
 H -1.488480 -1.959271 -3.191834
 H -2.621527 -0.988481 -3.687300
 H -0.242250 3.672622 -4.761401
 H -0.936835 2.412493 -4.483183
 H 5.242747 2.311700 1.187977
 H 3.742284 2.083253 1.313249
 H 2.698517 0.915439 -2.879333
 H 2.613144 2.448579 -3.521332
 H -5.154546 3.836400 -6.369745
 H -5.264235 2.963839 -5.254209
 H 4.798276 -6.416874 0.465170
 H 5.711375 -5.142411 0.482314
 H -0.130922 -0.714533 -6.806552
 H 0.794893 0.147022 -5.987732
 H -2.539652 0.004319 -6.030013
 H -3.752509 0.748923 -5.376876
 H -0.316027 -0.685323 1.921668
 H 0.770882 -0.813212 0.782027
 H 5.273762 -2.180484 -3.929604
 H 6.497292 -2.784310 -3.127247
 H 4.558216 0.303387 -0.767981
 H 4.821207 -1.090800 -1.462036
 H 0.097722 5.261790 4.052167
 H -0.955296 4.347232 3.454723
 H -4.239223 -0.362316 -2.308830
 H -5.419545 -0.773728 -3.199053
 H -0.903916 -4.475696 -1.194355
 H -0.383877 -3.491536 -0.131633
 H 5.113419 4.639171 -7.533599
 H 5.417867 3.701482 -8.722043
 H 3.371411 5.987953 4.850425
 H 4.397879 5.652616 5.913551
 H -6.135087 4.988861 -2.579408
 H -5.140902 6.387241 -2.506407
 H -0.572551 1.478785 -1.912568
 H 0.898965 1.605013 -2.443281
 H -3.875875 -4.445497 -1.479502
 H -4.127176 -4.399015 0.141416
 H -3.406587 5.696559 1.870498
 H -3.795817 6.044484 3.282974
 H -3.411034 3.501490 3.252209
 H -2.749974 2.951917 4.579307
 H -2.428332 -1.087491 -1.326104
 H -2.515466 0.067694 -0.300621
 H -1.964446 -1.263644 4.381425
 H -1.815431 -2.349102 5.497598
 H 0.970687 2.481922 4.518371
 H -0.320886 2.660296 5.478771
 H -4.398705 2.213992 2.596322
 H -4.318344 2.262961 1.031904
 H 3.682577 6.029825 -1.359090
 H 4.288581 5.455075 -2.573826
 H 0.958130 -4.830239 -3.855441
 H 1.800792 -5.533893 -2.894144
 H -4.242229 4.334603 -3.923857
 H -2.678136 4.274916 -3.915594
 H 5.295805 0.905756 7.608772
 H 5.010975 1.489605 6.176677
 H -1.863807 1.938500 2.575771
 H -0.642684 1.712615 1.769888
 H 0.851876 -1.779680 -2.782771
 H 0.369528 -1.114293 -4.188405
 H -0.154194 -3.325960 -4.743176
 H -0.027675 -3.074486 -6.244492
 H 7.404645 -6.268033 4.956717
 H 6.665570 -5.590991 3.829160
 H 3.934687 -3.819876 1.194413
 H 3.835774 -2.524536 0.457503
 H 6.720742 -0.899665 2.826423
 H 5.790942 -1.682608 1.846109
 H 1.857230 3.768173 -5.063224
 H 1.952062 4.938964 -3.885581
 H -0.921517 -8.147479 1.388236
 H -1.856126 -6.945556 1.055193
 H -4.945305 -0.992510 -6.256426
 H -4.054179 -2.187910 -6.801208
 H -4.226977 2.109463 -1.345436
 H -4.889948 0.649494 -1.262227
 H 3.970828 3.470688 -4.781930
 H 5.364094 3.030865 -4.825082
 H 2.448830 -0.785260 -1.013977
 H 0.993507 -0.285564 -1.164984
 H -4.731346 -4.162945 2.941598
 H -5.975576 -3.941694 2.208854
 H 1.824020 3.649925 2.313882
 H 2.325145 2.511414 1.367809
K_POINTS
 1
0.0 0.0 0.0 1.0