
&control
    calculation='scf'
    pseudo_dir = './',
    outdir='./outputs',
    disk_io='high'
/
&system
    ibrav= 1, celldm(1)=20.000000, nat=  192, ntyp= 2,
    ecutwfc = 30.0, nosym=.true., occupations='smearing',
    smearing='m-v', degauss=0.025
/
&electrons
    conv_thr =  1.0d-8,
    mixing_beta = 0.7
/
&ions
    pot_extrapolation='second-order'
    wfc_extrapolation='second-order'
    ion_temperature = 'andersen'
    tempw = 1000

/
ATOMIC_SPECIES
 H  1.01  H.blyp-hgh.UPF
 O  16.0  O.blyp-hgh.UPF
ATOMIC_POSITIONS bohr
 O -5.676886 -1.634525 -0.317638
 O 3.372243 -2.254835 6.334893
 O -5.742425 6.917260 -5.765534
 O 1.916464 2.637843 -0.969803
 O -4.954966 1.040278 4.403905
 O 0.352009 5.954846 6.146767
 O -1.568906 -5.835176 -2.523566
 O 3.700853 1.288747 4.805991
 O -2.729853 -6.776823 5.653259
 O 1.669450 -2.470530 3.576857
 O 2.488660 -6.090763 2.180543
 O -2.984805 -3.747373 5.006678
 O -4.215026 -6.916308 -0.037834
 O -3.636890 -4.055932 -4.282878
 O 2.484800 -4.415591 -1.736524
 O -1.513017 3.103149 -1.451782
 O -1.210338 -2.893668 1.437316
 O -0.051420 -4.902875 3.577302
 O 4.247887 -4.056107 -4.358724
 O 4.876259 4.317613 2.139900
 O 5.072955 -3.975209 4.245548
 O -2.456246 -1.731806 -3.080336
 O -1.151489 3.289085 -4.845294
 O 4.569248 1.618956 1.021365
 O 3.071272 1.567546 -3.521690
 O -4.637026 3.649131 -5.584116
 O 4.793198 -5.441980 0.665341
 O 0.668836 -0.800093 -6.216215
 O -2.805681 0.600178 -5.302962
 O 0.622254 -0.933515 1.762369
 O 6.179378 -1.988701 -3.570598
 O 4.148872 -0.354555 -1.401601
 O 0.014767 4.377610 3.583370
 O -4.805720 -0.031094 -3.028673
 O -0.054740 -4.181381 -0.766736
 O 5.649300 3.834675 -7.800983
 O 4.065214 6.389999 5.397200
 O -5.974661 5.903139 -2.247093
 O 0.033870 1.212357 -2.634414
 O -4.512971 -4.236757 -0.748250
 O -3.018312 6.136127 2.666818
 O -2.713861 2.909095 3.597791
 O -2.341724 -0.861143 -0.338742
 O -1.736484 -1.369425 5.325671
 O 0.629444 2.386123 5.426132
 O -4.556929 2.809385 1.823391
 O 3.562976 5.245135 -1.931373
 O 1.025093 -5.757193 -3.507489
 O -3.494217 4.632810 -3.420171
 O 5.741890 1.300031 6.850400
 O -1.345290 1.184981 2.218275
 O 0.277240 -1.899203 -3.567957
 O 0.140907 -3.754466 -5.568388
 O 7.148503 -6.397662 4.015943
 O 3.899193 -2.862947 1.382505
 O 5.919353 -1.482268 2.773168
 O 1.736837 4.012124 -4.126454
 O -1.370753 -7.733005 0.647410
 O -4.457474 -1.333990 -7.030274
 O -4.575181 1.409609 -0.753401
 O 4.830331 3.911600 -4.899537
 O 1.506845 -1.098213 -0.946023
 O -5.024235 -4.170099 1.985533
 O 1.821378 2.669142 2.157585
 H -5.181858 -2.465824 -0.498098
 H -5.755907 -1.815698 0.645270
 H 2.846803 -1.467264 6.571179
 H 3.107318 -2.382963 5.408181
 H -5.717131 6.233686 -5.052388
 H -5.157626 7.618591 -5.369059
 H 2.224126 3.383424 -1.508189
 H 0.964770 2.775391 -0.784512
 H -5.350096 0.148019 4.427018
 H -4.046394 0.727314 4.500242
 H 0.194029 6.899751 6.416359
 H 0.813049 5.611349 6.933105
 H -2.429444 -6.316363 -2.674744
 H -0.737503 -6.322016 -2.758824
 H 3.573954 1.732616 3.939069
 H 4.078944 0.407119 4.684019
 H -3.355573 -7.311822 6.197006
 H -1.798576 -6.963758 5.921578
 H 1.361415 -1.720637 3.050348
 H 2.326130 -2.784671 2.899370
 H 1.706536 -5.589338 2.531777
 H 2.642234 -5.802396 1.266320
 H -3.087498 -4.664404 5.338218
 H -3.107329 -3.951123 4.042723
 H -4.597766 -7.780921 -0.241022
 H -4.875638 -6.234010 -0.157783
 H -3.568167 -3.231907 -3.741073
 H -2.737091 -4.417701 -4.168382
 H 2.702036 -3.574584 -2.164388
 H 1.569296 -4.370633 -1.336679
 H -1.363138 3.230873 -2.396912
 H -1.688278 3.922156 -0.913723
 H -1.717984 -2.155743 1.043862
 H -0.364357 -2.416923 1.553385
 H 0.452446 -4.031871 3.521545
 H -0.833322 -4.685890 3.039536
 H 4.906426 -4.777063 -4.420759
 H 3.853147 -3.791516 -5.227654
 H 4.261858 5.070812 2.102921
 H 5.780096 4.723843 2.122146
 H 5.155158 -3.267953 4.913214
 H 5.025856 -4.835030 4.723966
 H -1.470493 -1.902457 -3.168750
 H -2.603011 -0.952682 -3.674580
 H -0.267762 3.716215 -4.753547
 H -0.916575 2.407726 -4.474546
 H 5.261496 2.294178 1.159551
 H 3.764363 2.050617 1.327486
 H 2.766955 0.949529 -2.833882
 H 2.646138 2.464389 -3.494781
 H -5.163679 3.822508 -6.395678
 H -5.235059 2.949227 -5.243012
 H 4.794558 -6.388269 0.416510
 H 5.702076 -5.137453 0.500521
 H -0.166181 -0.765876 -6.774974
 H 0.782297 0.154644 -6.004617
 H -2.510639 0.036623 -6.055270
 H -3.774496 0.690542 -5.372525
 H -0.306625 -0.670625 1.935661
 H 0.777999 -0.864424 0.781585
 H 5.279475 -2.159394 -3.945175
 H 6.472084 -2.834487 -3.171949
 H 4.556197 0.295190 -0.770241
 H 4.804292 -1.096390 -1.460861
 H 0.070073 5.264026 4.020898
 H -1.009381 4.377092 3.454615
 H -4.216131 -0.436235 -2.353062
 H -5.425090 -0.793233 -3.185596
 H -0.918254 -4.542782 -1.109457
 H -0.374525 -3.510311 -0.121150
 H 5.099309 4.608127 -7.578535
 H 5.433115 3.655415 -8.738187
 H 3.352376 6.007807 4.837267
 H 4.417915 5.607466 5.890903
 H -6.115083 4.997577 -2.618250
 H -5.189690 6.398033 -2.563714
 H -0.537927 1.471171 -1.866583
 H 0.908276 1.606051 -2.482083
 H -3.904777 -4.474705 -1.485909
 H -4.178565 -4.369464 0.158555
 H -3.405173 5.733635 1.859027
 H -3.785566 6.042242 3.305031
 H -3.435980 3.502473 3.311658
 H -2.655825 2.908250 4.574621
 H -2.468103 -1.031360 -1.302747
 H -2.571318 0.094591 -0.290961
 H -1.962848 -1.198019 4.394299
 H -1.858049 -2.348431 5.439482
 H 0.923319 2.439830 4.489745
 H -0.285507 2.664026 5.449301
 H -4.450492 2.130981 2.544066
 H -4.417631 2.260733 1.006005
 H 3.648172 6.050657 -1.366956
 H 4.306170 5.424241 -2.548760
 H 0.991180 -4.867362 -3.936439
 H 1.809012 -5.539851 -2.909930
 H -4.264572 4.352052 -3.970351
 H -2.697147 4.320434 -3.929152
 H 5.267069 0.931031 7.617863
 H 5.042457 1.457511 6.146687
 H -1.863068 1.943912 2.658196
 H -0.621732 1.733377 1.799883
 H 0.833775 -1.801448 -2.750748
 H 0.375672 -1.143647 -4.188723
 H -0.209811 -3.333195 -4.757426
 H -0.037106 -3.125889 -6.284694
 H 7.396981 -6.265302 4.953046
 H 6.636739 -5.592232 3.823679
 H 3.912306 -3.829111 1.234307
 H 3.843287 -2.500827 0.474369
 H 6.723588 -0.936701 2.852979
 H 5.811719 -1.665642 1.823231
 H 1.890412 3.820947 -5.078310
 H 1.969191 4.938484 -3.914528
 H -0.882951 -8.208465 1.343230
 H -1.794182 -6.961259 1.068830
 H -4.887122 -0.974288 -6.237575
 H -4.066354 -2.203774 -6.802778
 H -4.172062 2.074302 -1.347603
 H -4.879815 0.635558 -1.261346
 H 3.983734 3.417947 -4.714496
 H 5.367465 3.072003 -4.804271
 H 2.452200 -0.735405 -1.020759
 H 0.971238 -0.295002 -1.165790
 H -4.774869 -4.255606 2.933529
 H -6.000497 -4.062962 2.203907
 H 1.769525 3.627460 2.295569
 H 2.344468 2.516523 1.358484
K_POINTS
 1
0.0 0.0 0.0 1.0