
&control
    calculation='scf'
    pseudo_dir = './',
    outdir='./outputs',
    disk_io='high'
/
&system
    ibrav= 1, celldm(1)=20.000000, nat=  192, ntyp= 2,
    ecutwfc = 30.0, nosym=.true., occupations='smearing',
    smearing='m-v', degauss=0.025
/
&electrons
    conv_thr =  1.0d-8,
    mixing_beta = 0.7
/
&ions
    pot_extrapolation='second-order'
    wfc_extrapolation='second-order'
    ion_temperature = 'andersen'
    tempw = 1000

/
ATOMIC_SPECIES
 H  1.01  H.blyp-hgh.UPF
 O  16.0  O.blyp-hgh.UPF
ATOMIC_POSITIONS bohr
 O -5.678544 -1.636209 -0.310057
 O 3.377912 -2.248006 6.334733
 O -5.741693 6.919392 -5.770044
 O 1.919653 2.638134 -0.965705
 O -4.953375 1.043247 4.407262
 O 0.353935 5.956808 6.155464
 O -1.572031 -5.834252 -2.525813
 O 3.712010 1.287595 4.809565
 O -2.722728 -6.776929 5.662383
 O 1.667130 -2.471429 3.571809
 O 2.485288 -6.082777 2.178023
 O -2.980855 -3.752256 5.015447
 O -4.208109 -6.914606 -0.036993
 O -3.633014 -4.052958 -4.286928
 O 2.486717 -4.421857 -1.729124
 O -1.506267 3.100436 -1.452044
 O -1.211032 -2.894216 1.431177
 O -0.053735 -4.902104 3.574235
 O 4.244776 -4.050631 -4.345852
 O 4.879730 4.314910 2.135939
 O 5.072437 -3.973873 4.248977
 O -2.456657 -1.725913 -3.083430
 O -1.155094 3.287449 -4.847947
 O 4.574661 1.614881 1.009560
 O 3.075741 1.566533 -3.526764
 O -4.642410 3.652901 -5.592744
 O 4.790442 -5.439339 0.673645
 O 0.670482 -0.796902 -6.218976
 O -2.809477 0.601072 -5.305593
 O 0.622409 -0.936496 1.764649
 O 6.184071 -1.988631 -3.563356
 O 4.145291 -0.359671 -1.398744
 O 0.006412 4.378961 3.572250
 O -4.809921 -0.036242 -3.024651
 O -0.054197 -4.184190 -0.767900
 O 5.654061 3.823946 -7.803792
 O 4.066231 6.379268 5.396439
 O -5.982148 5.908166 -2.247990
 O 0.035683 1.211639 -2.631273
 O -4.516658 -4.237859 -0.743417
 O -3.021215 6.143616 2.663486
 O -2.708431 2.909718 3.597720
 O -2.348196 -0.849266 -0.335029
 O -1.734599 -1.366272 5.324734
 O 0.639661 2.383999 5.426752
 O -4.560764 2.804062 1.825689
 O 3.560801 5.250762 -1.930348
 O 1.018827 -5.759480 -3.502629
 O -3.506886 4.629796 -3.426436
 O 5.746558 1.305515 6.855908
 O -1.343132 1.193166 2.216427
 O 0.279901 -1.904550 -3.566806
 O 0.137574 -3.752177 -5.565744
 O 7.145246 -6.389558 4.015753
 O 3.901141 -2.864284 1.384564
 O 5.917008 -1.484304 2.766725
 O 1.737184 4.013624 -4.129412
 O -1.359760 -7.740374 0.641762
 O -4.456135 -1.334511 -7.028405
 O -4.580376 1.409989 -0.754058
 O 4.818276 3.916279 -4.908947
 O 1.509575 -1.095212 -0.939411
 O -5.026159 -4.167668 1.981773
 O 1.824786 2.663847 2.155181
 H -5.181244 -2.463376 -0.498728
 H -5.773976 -1.829063 0.646509
 H 2.855906 -1.453054 6.561675
 H 3.127816 -2.385658 5.406542
 H -5.724323 6.254046 -5.038537
 H -5.158024 7.619425 -5.357909
 H 2.229574 3.377581 -1.512652
 H 0.971822 2.775381 -0.778627
 H -5.354680 0.149458 4.431209
 H -4.037691 0.732017 4.490464
 H 0.183455 6.902614 6.412875
 H 0.823594 5.608074 6.932487
 H -2.444724 -6.280320 -2.685298
 H -0.746407 -6.338588 -2.731967
 H 3.565754 1.726347 3.938325
 H 4.087069 0.404684 4.683710
 H -3.352208 -7.311083 6.202388
 H -1.791529 -6.981112 5.909112
 H 1.357767 -1.714209 3.056146
 H 2.329537 -2.793867 2.896631
 H 1.690348 -5.598375 2.528181
 H 2.625902 -5.790659 1.263624
 H -3.076514 -4.670999 5.338660
 H -3.090009 -3.972739 4.051858
 H -4.586310 -7.779145 -0.239546
 H -4.865174 -6.227565 -0.145665
 H -3.575986 -3.219919 -3.758001
 H -2.731583 -4.412314 -4.187984
 H 2.698186 -3.583494 -2.168979
 H 1.564776 -4.388059 -1.336151
 H -1.357446 3.237180 -2.404065
 H -1.688752 3.923523 -0.921738
 H -1.721797 -2.155052 1.049257
 H -0.377105 -2.409946 1.550903
 H 0.437390 -4.023636 3.549808
 H -0.838863 -4.686527 3.043707
 H 4.913592 -4.760500 -4.432324
 H 3.860153 -3.794050 -5.230931
 H 4.282070 5.077758 2.103297
 H 5.789456 4.714544 2.122133
 H 5.147370 -3.279485 4.933080
 H 5.014235 -4.833864 4.730477
 H -1.464825 -1.882604 -3.160789
 H -2.597196 -0.941417 -3.670351
 H -0.277072 3.732324 -4.751324
 H -0.912391 2.404666 -4.472000
 H 5.267613 2.288216 1.150143
 H 3.772116 2.040435 1.333420
 H 2.790510 0.963884 -2.818036
 H 2.655796 2.466004 -3.483602
 H -5.167005 3.819130 -6.406922
 H -5.223174 2.941506 -5.238439
 H 4.794312 -6.378051 0.399924
 H 5.699497 -5.135803 0.505485
 H -0.175463 -0.785559 -6.762018
 H 0.779494 0.156724 -6.011837
 H -2.502158 0.046545 -6.063015
 H -3.781115 0.671030 -5.370924
 H -0.302312 -0.661787 1.940187
 H 0.781560 -0.882212 0.782969
 H 5.282499 -2.154872 -3.950266
 H 6.461619 -2.850319 -3.188099
 H 4.554138 0.291243 -0.771804
 H 4.797430 -1.094680 -1.459815
 H 0.063161 5.263587 4.010239
 H -1.018824 4.385371 3.455587
 H -4.207910 -0.460437 -2.370553
 H -5.428016 -0.798564 -3.182384
 H -0.918257 -4.566635 -1.081910
 H -0.370792 -3.517380 -0.116162
 H 5.095976 4.596859 -7.595722
 H 5.437676 3.640713 -8.743507
 H 3.346165 6.016512 4.833312
 H 4.423157 5.595352 5.885047
 H -6.103402 5.004303 -2.631940
 H -5.207165 6.395686 -2.584298
 H -0.524953 1.469849 -1.852980
 H 0.911728 1.608375 -2.493716
 H -3.913197 -4.484188 -1.483148
 H -4.192939 -4.359763 0.163298
 H -3.405611 5.747185 1.854720
 H -3.780917 6.041715 3.311620
 H -3.444219 3.503673 3.331170
 H -2.625200 2.894771 4.572064
 H -2.479969 -1.015184 -1.294612
 H -2.590183 0.102319 -0.285420
 H -1.962664 -1.176763 4.398746
 H -1.873907 -2.346892 5.418701
 H 0.905190 2.426457 4.482105
 H -0.276624 2.667608 5.438315
 H -4.470049 2.105110 2.524237
 H -4.451573 2.261130 0.998233
 H 3.634221 6.056628 -1.370978
 H 4.310451 5.412449 -2.540423
 H 1.000587 -4.882385 -3.965069
 H 1.809883 -5.542994 -2.914724
 H -4.268401 4.358595 -3.986616
 H -2.706605 4.335183 -3.932896
 H 5.256099 0.938856 7.621478
 H 5.054545 1.446928 6.137641
 H -1.862869 1.940817 2.685751
 H -0.616776 1.735154 1.812190
 H 0.826076 -1.806915 -2.741853
 H 0.379288 -1.154409 -4.188450
 H -0.226605 -3.334103 -4.762562
 H -0.038318 -3.142583 -6.298637
 H 7.392868 -6.264493 4.953298
 H 6.625906 -5.592387 3.821809
 H 3.905324 -3.833099 1.248013
 H 3.844909 -2.492727 0.481120
 H 6.724252 -0.949321 2.860862
 H 5.815161 -1.659315 1.817970
 H 1.901266 3.840130 -5.082767
 H 1.974742 4.939749 -3.925296
 H -0.869877 -8.227240 1.328895
 H -1.772177 -6.967215 1.074076
 H -4.867905 -0.969571 -6.230316
 H -4.071055 -2.209504 -6.803309
 H -4.154263 2.059723 -1.349616
 H -4.877897 0.632807 -1.263477
 H 3.989516 3.405298 -4.692478
 H 5.369275 3.088666 -4.800139
 H 2.452059 -0.720827 -1.022555
 H 0.963779 -0.299820 -1.167337
 H -4.786218 -4.286660 2.927940
 H -6.005784 -4.101917 2.199507
 H 1.750662 3.622063 2.289198
 H 2.348743 2.519969 1.352027
K_POINTS
 1
0.0 0.0 0.0 1.0