
&control
    calculation='scf'
    pseudo_dir = './',
    outdir='./outputs',
    disk_io='high'
/
&system
    ibrav= 1, celldm(1)=20.000000, nat=  192, ntyp= 2,
    ecutwfc = 30.0, nosym=.true., occupations='smearing',
    smearing='m-v', degauss=0.025
/
&electrons
    conv_thr =  1.0d-8,
    mixing_beta = 0.7
/
&ions
    pot_extrapolation='second-order'
    wfc_extrapolation='second-order'
    ion_temperature = 'andersen'
    tempw = 1000

/
ATOMIC_SPECIES
 H  1.01  H.blyp-hgh.UPF
 O  16.0  O.blyp-hgh.UPF
ATOMIC_POSITIONS bohr
 O -5.684172 -1.642886 -0.284253
 O 3.397552 -2.224240 6.333956
 O -5.737729 6.927028 -5.781821
 O 1.930583 2.637716 -0.951525
 O -4.947726 1.052277 4.417245
 O 0.359525 5.963372 6.183902
 O -1.583803 -5.829081 -2.532714
 O 3.748996 1.284774 4.822013
 O -2.700014 -6.776565 5.692580
 O 1.662093 -2.477550 3.554731
 O 2.473415 -6.056342 2.170647
 O -2.968765 -3.770101 5.041880
 O -4.182137 -6.909505 -0.032349
 O -3.621162 -4.042842 -4.299458
 O 2.493248 -4.443907 -1.703353
 O -1.483698 3.090105 -1.452918
 O -1.214757 -2.896574 1.410485
 O -0.059820 -4.897565 3.563834
 O 4.234290 -4.032171 -4.303021
 O 4.893680 4.306292 2.121088
 O 5.072011 -3.969332 4.259890
 O -2.457199 -1.705639 -3.093928
 O -1.165447 3.281634 -4.855369
 O 4.593693 1.600073 0.969268
 O 3.091111 1.563721 -3.545309
 O -4.662209 3.664847 -5.622050
 O 4.781569 -5.431266 0.701019
 O 0.675438 -0.784681 -6.227558
 O -2.821349 0.603864 -5.314310
 O 0.622254 -0.945996 1.771096
 O 6.197146 -1.991098 -3.540096
 O 4.133243 -0.376375 -1.388562
 O -0.026901 4.385169 3.534688
 O -4.822220 -0.053082 -3.009503
 O -0.054132 -4.193532 -0.772048
 O 5.669971 3.787006 -7.811710
 O 4.069192 6.340815 5.394329
 O -6.009631 5.924310 -2.250999
 O 0.040550 1.207630 -2.620625
 O -4.531198 -4.240468 -0.730079
 O -3.030280 6.168400 2.652767
 O -2.689951 2.912701 3.599167
 O -2.369844 -0.808229 -0.322706
 O -1.727418 -1.356185 5.320987
 O 0.675267 2.375474 5.428857
 O -4.574383 2.784312 1.832373
 O 3.554036 5.269592 -1.926620
 O 1.000308 -5.765626 -3.486897
 O -3.548414 4.620547 -3.446178
 O 5.761000 1.323783 6.874745
 O -1.335859 1.222705 2.210352
 O 0.287920 -1.923773 -3.561083
 O 0.125815 -3.746576 -5.557292
 O 7.135215 -6.362443 4.014763
 O 3.907474 -2.868427 1.391249
 O 5.909510 -1.490734 2.746783
 O 1.738535 4.016971 -4.140344
 O -1.323065 -7.764642 0.622475
 O -4.452339 -1.336979 -7.022512
 O -4.596702 1.413214 -0.753936
 O 4.776746 3.929162 -4.938055
 O 1.519161 -1.082807 -0.917853
 O -5.036289 -4.159800 1.971358
 O 1.836234 2.645005 2.148012
 H -5.175488 -2.458035 -0.513731
 H -5.831597 -1.864973 0.648225
 H 2.882321 -1.410871 6.530382
 H 3.189053 -2.396599 5.393046
 H -5.750967 6.320866 -5.003514
 H -5.161454 7.617120 -5.330648
 H 2.247996 3.366631 -1.525205
 H 0.992976 2.784451 -0.760540
 H -5.375890 0.161088 4.447594
 H -4.005304 0.754638 4.459228
 H 0.150805 6.909875 6.397961
 H 0.856759 5.600684 6.933134
 H -2.477482 -6.174065 -2.722289
 H -0.788652 -6.391654 -2.646960
 H 3.543330 1.694721 3.944418
 H 4.111471 0.392925 4.669917
 H -3.326108 -7.308999 6.221492
 H -1.771012 -7.039242 5.871973
 H 1.337004 -1.680308 3.071596
 H 2.337334 -2.822906 2.900169
 H 1.639430 -5.635166 2.511120
 H 2.567078 -5.747094 1.254427
 H -3.033102 -4.699667 5.356609
 H -3.025201 -4.031791 4.088614
 H -4.554630 -7.774888 -0.236216
 H -4.842222 -6.204038 -0.114436
 H -3.595225 -3.178585 -3.819607
 H -2.711611 -4.398669 -4.253099
 H 2.681384 -3.614024 -2.184080
 H 1.552366 -4.434496 -1.337117
 H -1.343619 3.267486 -2.421396
 H -1.684757 3.924525 -0.952750
 H -1.748724 -2.152422 1.058723
 H -0.400480 -2.386143 1.552228
 H 0.386112 -4.004987 3.647359
 H -0.861770 -4.692373 3.052336
 H 4.930667 -4.701259 -4.478814
 H 3.890976 -3.804734 -5.226987
 H 4.339802 5.107712 2.110503
 H 5.810253 4.677084 2.122301
 H 5.124689 -3.319682 4.993818
 H 4.965812 -4.824798 4.755089
 H -1.450489 -1.815642 -3.133248
 H -2.580176 -0.905225 -3.658181
 H -0.315297 3.786407 -4.745775
 H -0.908021 2.398247 -4.468075
 H 5.287799 2.268637 1.119054
 H 3.801037 2.007797 1.357231
 H 2.873135 1.019929 -2.762152
 H 2.685027 2.458173 -3.440731
 H -5.181462 3.809602 -6.451577
 H -5.174397 2.910710 -5.225752
 H 4.794681 -6.343466 0.343315
 H 5.691866 -5.128370 0.517894
 H -0.196850 -0.857099 -6.710852
 H 0.773801 0.166010 -6.042007
 H -2.480715 0.078304 -6.082150
 H -3.798775 0.606248 -5.365521
 H -0.284096 -0.617646 1.953216
 H 0.797098 -0.942154 0.792948
 H 5.303596 -2.144549 -3.964054
 H 6.422144 -2.898317 -3.244316
 H 4.543138 0.275669 -0.778009
 H 4.778181 -1.086485 -1.455300
 H 0.050993 5.260395 3.975172
 H -1.021121 4.404726 3.459419
 H -4.179367 -0.536756 -2.438539
 H -5.442940 -0.811755 -3.176702
 H -0.902664 -4.650380 -0.995485
 H -0.356048 -3.543313 -0.094528
 H 5.090794 4.555079 -7.659052
 H 5.453444 3.593412 -8.756086
 H 3.327299 6.049713 4.823493
 H 4.432851 5.563881 5.869932
 H -6.051418 5.040327 -2.676800
 H -5.261915 6.376089 -2.657921
 H -0.475774 1.469741 -1.816958
 H 0.923241 1.621750 -2.528101
 H -3.936652 -4.514435 -1.453481
 H -4.225831 -4.330191 0.184100
 H -3.412923 5.794406 1.835346
 H -3.759707 6.040608 3.326565
 H -3.464996 3.503324 3.397594
 H -2.528244 2.854950 4.561554
 H -2.514647 -0.972975 -1.272626
 H -2.654062 0.125886 -0.257293
 H -1.963421 -1.106532 4.411069
 H -1.931592 -2.335433 5.346652
 H 0.844408 2.382869 4.462035
 H -0.253531 2.685950 5.403937
 H -4.541585 2.025079 2.456956
 H -4.566029 2.269010 0.975127
 H 3.580872 6.078590 -1.388432
 H 4.322330 5.371044 -2.513710
 H 1.025615 -4.945781 -4.061146
 H 1.805042 -5.556417 -2.928514
 H -4.273469 4.380319 -4.047618
 H -2.744133 4.379984 -3.945582
 H 5.220074 0.966570 7.628137
 H 5.103145 1.414108 6.114540
 H -1.857220 1.911334 2.769065
 H -0.600765 1.731414 1.857044
 H 0.795169 -1.817995 -2.720768
 H 0.399067 -1.188095 -4.189363
 H -0.278366 -3.328269 -4.778499
 H -0.036923 -3.195378 -6.344501
 H 7.372554 -6.260370 4.960217
 H 6.582967 -5.588441 3.817622
 H 3.883747 -3.845752 1.291111
 H 3.846773 -2.468884 0.505917
 H 6.728775 -0.990784 2.883133
 H 5.813939 -1.636217 1.804113
 H 1.936023 3.904245 -5.095638
 H 1.991728 4.950592 -3.959470
 H -0.826617 -8.283737 1.283218
 H -1.693583 -6.991746 1.093539
 H -4.805890 -0.957583 -6.200857
 H -4.090302 -2.227283 -6.805965
 H -4.097242 2.001805 -1.359287
 H -4.875983 0.629751 -1.278837
 H 4.010301 3.382271 -4.622842
 H 5.380669 3.154309 -4.799098
 H 2.444749 -0.682400 -1.025934
 H 0.939928 -0.323002 -1.176092
 H -4.808695 -4.389365 2.900340
 H -6.013992 -4.222216 2.172943
 H 1.686328 3.609861 2.267028
 H 2.352763 2.538881 1.322088
K_POINTS
 1
0.0 0.0 0.0 1.0