
&control
    calculation='scf'
    pseudo_dir = './',
    outdir='./outputs',
    disk_io='high'
/
&system
    ibrav= 1, celldm(1)=20.000000, nat=  192, ntyp= 2,
    ecutwfc = 30.0, nosym=.true., occupations='smearing',
    smearing='m-v', degauss=0.025
/
&electrons
    conv_thr =  1.0d-8,
    mixing_beta = 0.7
/
&ions
    pot_extrapolation='second-order'
    wfc_extrapolation='second-order'
    ion_temperature = 'andersen'
    tempw = 1000

/
ATOMIC_SPECIES
 H  1.01  H.blyp-hgh.UPF
 O  16.0  O.blyp-hgh.UPF
ATOMIC_POSITIONS bohr
 O -5.688568 -1.649338 -0.264232
 O 3.413969 -2.204195 6.332491
 O -5.732748 6.934217 -5.786991
 O 1.940560 2.636373 -0.940216
 O -4.942002 1.058009 4.423930
 O 0.362887 5.968191 6.205059
 O -1.593981 -5.821545 -2.537162
 O 3.778556 1.282861 4.832066
 O -2.682574 -6.774937 5.716029
 O 1.660370 -2.484780 3.540834
 O 2.463000 -6.035250 2.165617
 O -2.960081 -3.786680 5.060309
 O -4.158799 -6.905138 -0.026711
 O -3.613105 -4.034753 -4.308743
 O 2.498441 -4.462367 -1.681623
 O -1.465482 3.081145 -1.455361
 O -1.219425 -2.898545 1.393612
 O -0.063372 -4.892315 3.555659
 O 4.226129 -4.017563 -4.270718
 O 4.906696 4.300227 2.107603
 O 5.072806 -3.966016 4.269173
 O -2.456287 -1.688510 -3.102460
 O -1.171808 3.276622 -4.859615
 O 4.609369 1.587223 0.936349
 O 3.103457 1.561653 -3.560973
 O -4.680159 3.673460 -5.646034
 O 4.775465 -5.425945 0.722450
 O 0.679367 -0.774137 -6.233397
 O -2.830056 0.605892 -5.321230
 O 0.621299 -0.953140 1.775443
 O 6.204004 -1.996949 -3.522886
 O 4.122212 -0.388341 -1.379940
 O -0.057154 4.391737 3.504460
 O -4.829947 -0.066198 -2.995409
 O -0.055523 -4.200950 -0.775296
 O 5.682555 3.756248 -7.817222
 O 4.071166 6.308610 5.392808
 O -6.033925 5.936212 -2.253862
 O 0.044019 1.202873 -2.611969
 O -4.545878 -4.241141 -0.721875
 O -3.036409 6.188103 2.644821
 O -2.675243 2.916375 3.602068
 O -2.386983 -0.774173 -0.312514
 O -1.720969 -1.349043 5.316969
 O 0.703067 2.367894 5.429743
 O -4.586578 2.766224 1.835909
 O 3.548400 5.283484 -1.923395
 O 0.988005 -5.768816 -3.475841
 O -3.581199 4.614599 -3.459885
 O 5.770796 1.337812 6.890862
 O -1.331722 1.246695 2.206864
 O 0.292829 -1.940907 -3.554615
 O 0.115953 -3.744535 -5.551610
 O 7.128179 -6.340761 4.013666
 O 3.912347 -2.871580 1.397302
 O 5.903647 -1.495399 2.733621
 O 1.740214 4.019031 -4.150592
 O -1.293602 -7.783604 0.606864
 O -4.450082 -1.339946 -7.017879
 O -4.608689 1.417519 -0.752128
 O 4.742368 3.936967 -4.958652
 O 1.526943 -1.070563 -0.901130
 O -5.048150 -4.154377 1.965322
 O 1.845700 2.629653 2.142631
 H -5.169443 -2.453602 -0.535862
 H -5.874011 -1.888855 0.651348
 H 2.899853 -1.385445 6.503754
 H 3.230401 -2.404473 5.379614
 H -5.777784 6.366720 -4.987985
 H -5.164933 7.612730 -5.324819
 H 2.260619 3.363392 -1.528128
 H 1.003127 2.802105 -0.747677
 H -5.393357 0.181584 4.463569
 H -3.988634 0.780823 4.435315
 H 0.129741 6.912672 6.387324
 H 0.880312 5.602144 6.938843
 H -2.490577 -6.111530 -2.754220
 H -0.835328 -6.434528 -2.586544
 H 3.530577 1.659411 3.960042
 H 4.125884 0.383212 4.647184
 H -3.293532 -7.312121 6.240683
 H -1.757387 -7.085609 5.848154
 H 1.319262 -1.653513 3.082991
 H 2.336660 -2.839966 2.914740
 H 1.602045 -5.670415 2.493927
 H 2.516774 -5.709209 1.247275
 H -2.991123 -4.726154 5.391029
 H -2.967728 -4.063078 4.119316
 H -4.537372 -7.772930 -0.235433
 H -4.831072 -6.190343 -0.099000
 H -3.599125 -3.147135 -3.873507
 H -2.696133 -4.387755 -4.303117
 H 2.662592 -3.643143 -2.193420
 H 1.548184 -4.458108 -1.341730
 H -1.339340 3.296011 -2.418336
 H -1.676156 3.920911 -0.978909
 H -1.783346 -2.153430 1.057908
 H -0.399419 -2.367326 1.564037
 H 0.345580 -3.997998 3.724200
 H -0.882183 -4.699627 3.054024
 H 4.938340 -4.651449 -4.517290
 H 3.919576 -3.811019 -5.200352
 H 4.376794 5.134911 2.121657
 H 5.820279 4.640606 2.122090
 H 5.111140 -3.350825 5.032866
 H 4.917489 -4.812890 4.772951
 H -1.446124 -1.764304 -3.110481
 H -2.570060 -0.876811 -3.652285
 H -0.354920 3.825197 -4.743314
 H -0.913702 2.402117 -4.471352
 H 5.304154 2.253690 1.094319
 H 3.830779 1.980616 1.379143
 H 2.946641 1.071756 -2.717613
 H 2.705562 2.442727 -3.404591
 H -5.196984 3.800025 -6.489153
 H -5.124616 2.886397 -5.224922
 H 4.793646 -6.314744 0.297562
 H 5.684572 -5.118625 0.523687
 H -0.205550 -0.916709 -6.663749
 H 0.771228 0.180134 -6.073252
 H -2.472318 0.102066 -6.088470
 H -3.806501 0.555574 -5.361401
 H -0.265102 -0.566544 1.959214
 H 0.813239 -0.988412 0.804119
 H 5.332231 -2.137318 -3.971556
 H 6.389396 -2.930443 -3.288936
 H 4.531866 0.264542 -0.780298
 H 4.775429 -1.088196 -1.452151
 H 0.054932 5.258994 3.949048
 H -1.011183 4.409914 3.458983
 H -4.155725 -0.591152 -2.502447
 H -5.460501 -0.815985 -3.177037
 H -0.876606 -4.720891 -0.934322
 H -0.342425 -3.566762 -0.072795
 H 5.092197 4.519429 -7.712647
 H 5.469203 3.555545 -8.758413
 H 3.314425 6.076500 4.820318
 H 4.431589 5.541592 5.863601
 H -6.003174 5.075681 -2.709600
 H -5.296073 6.358517 -2.720236
 H -0.432478 1.475004 -1.797690
 H 0.927829 1.635060 -2.551933
 H -3.945778 -4.538782 -1.412263
 H -4.235673 -4.309831 0.206680
 H -3.425935 5.833520 1.814237
 H -3.737980 6.040053 3.329412
 H -3.469470 3.492820 3.453590
 H -2.459021 2.830229 4.552048
 H -2.537336 -0.952237 -1.263119
 H -2.706960 0.144902 -0.224396
 H -1.964477 -1.049800 4.418444
 H -1.981448 -2.318326 5.289017
 H 0.803637 2.347303 4.450369
 H -0.231459 2.703847 5.386192
 H -4.603802 1.967124 2.408758
 H -4.656622 2.285038 0.959518
 H 3.533234 6.104513 -1.405983
 H 4.332355 5.339208 -2.493790
 H 1.038283 -5.013132 -4.132666
 H 1.794565 -5.568091 -2.935381
 H -4.275211 4.395467 -4.107456
 H -2.773008 4.408755 -3.958904
 H 5.196360 0.993209 7.622685
 H 5.151182 1.392892 6.105033
 H -1.845209 1.870820 2.819761
 H -0.576197 1.730394 1.891295
 H 0.768407 -1.818629 -2.710610
 H 0.424491 -1.210076 -4.193378
 H -0.315906 -3.312319 -4.790010
 H -0.030947 -3.235314 -6.375305
 H 7.347569 -6.254114 4.970032
 H 6.541456 -5.581076 3.819705
 H 3.868492 -3.850630 1.318979
 H 3.843750 -2.455965 0.524521
 H 6.736454 -1.023022 2.895605
 H 5.799217 -1.615516 1.791306
 H 1.961738 3.949603 -5.104716
 H 2.001123 4.962919 -3.979700
 H -0.793322 -8.322307 1.248281
 H -1.626041 -7.016647 1.111074
 H -4.758123 -0.952675 -6.173887
 H -4.110115 -2.238722 -6.809606
 H -4.054678 1.947620 -1.367502
 H -4.878839 0.634572 -1.297414
 H 4.023568 3.383424 -4.572204
 H 5.398474 3.215364 -4.814168
 H 2.433225 -0.663177 -1.025420
 H 0.921962 -0.347761 -1.186585
 H -4.807147 -4.469210 2.868537
 H -6.013632 -4.304298 2.138062
 H 1.635232 3.597688 2.248079
 H 2.342245 2.562406 1.293530
K_POINTS
 1
0.0 0.0 0.0 1.0