
&control
    calculation='scf'
    pseudo_dir = './',
    outdir='./outputs',
    disk_io='high'
/
&system
    ibrav= 1, celldm(1)=20.000000, nat=  192, ntyp= 2,
    ecutwfc = 30.0, nosym=.true., occupations='smearing',
    smearing='m-v', degauss=0.025
/
&electrons
    conv_thr =  1.0d-8,
    mixing_beta = 0.7
/
&ions
    pot_extrapolation='second-order'
    wfc_extrapolation='second-order'
    ion_temperature = 'andersen'
    tempw = 1000

/
ATOMIC_SPECIES
 H  1.01  H.blyp-hgh.UPF
 O  16.0  O.blyp-hgh.UPF
ATOMIC_POSITIONS bohr
 O -5.698701 -1.671050 -0.218517
 O 3.462710 -2.148497 6.318632
 O -5.715269 6.958031 -5.784514
 O 1.970501 2.632975 -0.911197
 O -4.922268 1.074311 4.435963
 O 0.366998 5.975083 6.251736
 O -1.620716 -5.784315 -2.543726
 O 3.862710 1.269328 4.860155
 O -2.631513 -6.764023 5.775917
 O 1.654133 -2.504108 3.509969
 O 2.429271 -5.975911 2.150882
 O -2.938348 -3.847555 5.107210
 O -4.091545 -6.890033 -0.004838
 O -3.596949 -4.014863 -4.333499
 O 2.512175 -4.514578 -1.618432
 O -1.414960 3.056585 -1.470504
 O -1.233561 -2.894748 1.346888
 O -0.072580 -4.874628 3.534518
 O 4.212764 -3.984386 -4.191163
 O 4.937783 4.292155 2.066000
 O 5.076397 -3.961992 4.302432
 O -2.448559 -1.634427 -3.126725
 O -1.188843 3.267333 -4.868347
 O 4.651455 1.550844 0.845586
 O 3.136144 1.552093 -3.595093
 O -4.736716 3.694072 -5.715130
 O 4.767518 -5.420188 0.776004
 O 0.695380 -0.744579 -6.241456
 O -2.851751 0.613425 -5.335893
 O 0.612311 -0.969947 1.788054
 O 6.209580 -2.033896 -3.481388
 O 4.088019 -0.417753 -1.356101
 O -0.129726 4.415695 3.423034
 O -4.841069 -0.100811 -2.949590
 O -0.062094 -4.221257 -0.781725
 O 5.716503 3.668176 -7.829614
 O 4.075838 6.225491 5.386824
 O -6.098239 5.966995 -2.273711
 O 0.058072 1.183458 -2.590539
 O -4.598000 -4.236671 -0.695926
 O -3.044592 6.241622 2.618463
 O -2.631086 2.929281 3.618928
 O -2.432367 -0.678286 -0.285072
 O -1.704063 -1.335007 5.295908
 O 0.765876 2.347357 5.421650
 O -4.629216 2.703809 1.836082
 O 3.529088 5.312933 -1.912413
 O 0.961861 -5.774793 -3.457399
 O -3.672708 4.604277 -3.493436
 O 5.795162 1.372546 6.939847
 O -1.323211 1.300316 2.198304
 O 0.296953 -1.990585 -3.536752
 O 0.086222 -3.748916 -5.540657
 O 7.109746 -6.277587 4.010833
 O 3.924874 -2.877494 1.421748
 O 5.888316 -1.505167 2.712691
 O 1.750357 4.031583 -4.186977
 O -1.211058 -7.832648 0.564716
 O -4.449284 -1.350027 -7.001552
 O -4.635775 1.432758 -0.748064
 O 4.647336 3.953653 -5.003967
 O 1.541115 -1.034005 -0.855979
 O -5.089939 -4.147019 1.958279
 O 1.872222 2.594183 2.125111
 H -5.173973 -2.416744 -0.595939
 H -5.959865 -1.972346 0.670894
 H 2.923153 -1.344255 6.420284
 H 3.314505 -2.400958 5.383604
 H -5.888615 6.420829 -4.984248
 H -5.134923 7.635859 -5.377372
 H 2.283021 3.363478 -1.482531
 H 1.028823 2.881734 -0.727437
 H -5.423773 0.255993 4.520763
 H -3.995449 0.861900 4.376597
 H 0.102509 6.914214 6.392072
 H 0.922252 5.656599 6.982088
 H -2.511630 -6.057483 -2.848422
 H -1.018340 -6.556944 -2.462642
 H 3.495877 1.569817 4.009994
 H 4.137197 0.375143 4.569111
 H -3.195807 -7.362894 6.319778
 H -1.744345 -7.192524 5.804746
 H 1.319369 -1.669994 3.121691
 H 2.345632 -2.862693 2.938396
 H 1.507125 -5.777525 2.455649
 H 2.382508 -5.609778 1.244236
 H -2.852184 -4.750041 5.542146
 H -2.802534 -4.096912 4.165877
 H -4.507957 -7.745105 -0.232749
 H -4.787632 -6.214903 -0.095244
 H -3.542079 -3.080962 -4.030039
 H -2.677655 -4.330114 -4.423100
 H 2.600966 -3.747645 -2.206607
 H 1.551702 -4.472948 -1.355784
 H -1.346703 3.360126 -2.376973
 H -1.640064 3.896659 -1.013249
 H -1.877529 -2.205749 1.037627
 H -0.413483 -2.353901 1.619048
 H 0.242032 -4.005597 3.892588
 H -0.910402 -4.720094 3.053622
 H 4.949264 -4.525595 -4.566527
 H 3.932746 -3.756108 -5.086403
 H 4.475153 5.159275 2.161854
 H 5.886430 4.533984 2.117079
 H 5.106367 -3.394784 5.092574
 H 4.756908 -4.777638 4.782528
 H -1.455008 -1.656807 -3.050785
 H -2.557448 -0.804529 -3.658588
 H -0.466687 3.901471 -4.737290
 H -0.937143 2.418662 -4.485242
 H 5.350766 2.211557 1.020872
 H 3.948806 1.885940 1.436624
 H 3.200726 1.219648 -2.652693
 H 2.743376 2.417929 -3.340141
 H -5.255364 3.742778 -6.561507
 H -4.956753 2.835494 -5.292880
 H 4.765600 -6.214886 0.187735
 H 5.645268 -5.064237 0.525173
 H -0.208285 -1.054871 -6.528597
 H 0.749445 0.240655 -6.197522
 H -2.473887 0.135097 -6.092076
 H -3.805688 0.431577 -5.349457
 H -0.177886 -0.376356 1.933382
 H 0.870019 -1.085235 0.828835
 H 5.392271 -2.094470 -4.008459
 H 6.327087 -2.996012 -3.381828
 H 4.500212 0.255725 -0.756494
 H 4.805064 -1.114845 -1.445415
 H 0.112402 5.257968 3.881656
 H -1.124565 4.388754 3.429160
 H -4.095366 -0.703617 -2.706063
 H -5.520255 -0.788185 -3.185059
 H -0.766794 -4.912562 -0.805677
 H -0.309269 -3.648359 -0.006906
 H 5.111212 4.437445 -7.840515
 H 5.540363 3.423226 -8.757015
 H 3.282061 6.116227 4.835366
 H 4.386552 5.436422 5.883061
 H -5.901560 5.121735 -2.761381
 H -5.374437 6.361181 -2.845714
 H -0.333514 1.519022 -1.757927
 H 0.905972 1.659059 -2.613180
 H -3.899270 -4.620532 -1.278007
 H -4.235398 -4.258016 0.234995
 H -3.475903 5.951903 1.767108
 H -3.693203 6.032441 3.320136
 H -3.455983 3.429355 3.616163
 H -2.321868 2.803627 4.531429
 H -2.580062 -0.924543 -1.232516
 H -2.863527 0.192064 -0.110342
 H -1.950975 -0.892410 4.453961
 H -2.118614 -2.237555 5.158008
 H 0.772624 2.233796 4.441710
 H -0.115847 2.756448 5.425437
 H -4.780818 1.851314 2.319986
 H -4.876800 2.379604 0.927372
 H 3.402709 6.210043 -1.495344
 H 4.360821 5.285356 -2.428532
 H 1.044245 -5.243942 -4.276486
 H 1.767240 -5.581268 -2.923798
 H -4.273447 4.430681 -4.294183
 H -2.824917 4.456156 -3.995343
 H 5.142586 1.078799 7.586567
 H 5.299091 1.371689 6.094518
 H -1.800977 1.763571 2.897049
 H -0.459229 1.762323 1.989418
 H 0.719216 -1.787162 -2.673372
 H 0.529664 -1.276112 -4.195282
 H -0.385137 -3.233175 -4.844055
 H -0.003875 -3.332740 -6.409677
 H 7.236249 -6.219949 4.987677
 H 6.424527 -5.574838 3.870599
 H 3.836184 -3.840077 1.345090
 H 3.810122 -2.460127 0.549300
 H 6.764506 -1.117209 2.891595
 H 5.706706 -1.536076 1.756623
 H 2.020860 4.010644 -5.130212
 H 1.987738 4.971846 -3.973593
 H -0.706151 -8.413037 1.158177
 H -1.437910 -7.094995 1.166429
 H -4.630274 -0.971831 -6.120739
 H -4.177536 -2.272990 -6.826714
 H -3.955433 1.794397 -1.363712
 H -4.911928 0.679227 -1.346432
 H 4.022644 3.439196 -4.451175
 H 5.473294 3.405005 -4.930325
 H 2.427543 -0.636534 -1.017408
 H 0.874678 -0.416904 -1.230640
 H -4.722776 -4.664864 2.725809
 H -6.016921 -4.456716 1.999849
 H 1.511581 3.503684 2.203821
 H 2.254614 2.646836 1.215713
K_POINTS
 1
0.0 0.0 0.0 1.0