
&control
    calculation='scf'
    pseudo_dir = './',
    outdir='./outputs',
    disk_io='high'
/
&system
    ibrav= 1, celldm(1)=20.000000, nat=  192, ntyp= 2,
    ecutwfc = 30.0, nosym=.true., occupations='smearing',
    smearing='m-v', degauss=0.025
/
&electrons
    conv_thr =  1.0d-8,
    mixing_beta = 0.7
/
&ions
    pot_extrapolation='second-order'
    wfc_extrapolation='second-order'
    ion_temperature = 'andersen'
    tempw = 1000

/
ATOMIC_SPECIES
 H  1.01  H.blyp-hgh.UPF
 O  16.0  O.blyp-hgh.UPF
ATOMIC_POSITIONS bohr
 O -5.713215 -1.690078 -0.180230
 O 3.520984 -2.089727 6.297244
 O -5.698352 6.985879 -5.764454
 O 1.993732 2.633618 -0.880258
 O -4.912449 1.110831 4.439211
 O 0.366041 5.971474 6.283493
 O -1.653810 -5.741130 -2.547737
 O 3.951233 1.239864 4.879892
 O -2.578037 -6.756701 5.841169
 O 1.648888 -2.539031 3.504307
 O 2.380091 -5.912590 2.133250
 O -2.913945 -3.923800 5.150806
 O -4.019519 -6.877175 0.025395
 O -3.589417 -3.994953 -4.360412
 O 2.522658 -4.568739 -1.549297
 O -1.365357 3.036346 -1.488804
 O -1.245395 -2.887164 1.302629
 O -0.081718 -4.860451 3.517862
 O 4.215344 -3.961764 -4.120667
 O 4.973292 4.289251 2.018393
 O 5.075278 -3.968815 4.348966
 O -2.439939 -1.564432 -3.154708
 O -1.219139 3.268983 -4.880992
 O 4.695248 1.514149 0.753580
 O 3.168840 1.544749 -3.602275
 O -4.798549 3.714658 -5.789416
 O 4.773896 -5.426357 0.821075
 O 0.722576 -0.710631 -6.236092
 O -2.870721 0.625943 -5.342709
 O 0.590355 -0.979655 1.801091
 O 6.194965 -2.098194 -3.451506
 O 4.065440 -0.448255 -1.328420
 O -0.209078 4.444171 3.339678
 O -4.835697 -0.132202 -2.897167
 O -0.069756 -4.246352 -0.782532
 O 5.747902 3.577955 -7.839778
 O 4.085027 6.143683 5.380915
 O -6.144510 5.988466 -2.328454
 O 0.074386 1.153317 -2.567829
 O -4.644580 -4.234847 -0.670166
 O -3.041401 6.297247 2.581799
 O -2.575259 2.944901 3.649515
 O -2.474842 -0.577917 -0.253772
 O -1.692049 -1.326734 5.257819
 O 0.821574 2.321212 5.399460
 O -4.690808 2.624103 1.826324
 O 3.501685 5.336005 -1.893576
 O 0.943737 -5.790064 -3.447790
 O -3.767716 4.598042 -3.546745
 O 5.828487 1.404096 6.993253
 O -1.288575 1.335651 2.172529
 O 0.295221 -2.034080 -3.516315
 O 0.050446 -3.768532 -5.530260
 O 7.084870 -6.204368 4.010937
 O 3.934872 -2.872510 1.453416
 O 5.871290 -1.511123 2.707803
 O 1.767196 4.051785 -4.235331
 O -1.121244 -7.874110 0.527663
 O -4.455494 -1.365662 -6.981915
 O -4.653722 1.449019 -0.754058
 O 4.556402 3.973898 -5.040956
 O 1.538935 -0.998445 -0.809277
 O -5.133218 -4.152169 1.960415
 O 1.899437 2.563662 2.095990
 H -5.197504 -2.386353 -0.630080
 H -5.974113 -2.119522 0.655563
 H 2.899536 -1.321990 6.339565
 H 3.356777 -2.386074 5.378181
 H -6.023823 6.421987 -5.032648
 H -5.036743 7.680940 -5.473859
 H 2.341393 3.410273 -1.385316
 H 1.091458 2.961334 -0.729787
 H -5.418355 0.280896 4.596249
 H -3.961251 0.884915 4.323923
 H 0.105319 6.913545 6.446465
 H 0.927684 5.763255 7.054013
 H -2.497865 -6.091331 -2.920489
 H -1.264979 -6.630461 -2.383028
 H 3.443793 1.556991 4.085667
 H 4.147196 0.345176 4.523836
 H -3.090142 -7.404500 6.369635
 H -1.732775 -7.239708 5.774296
 H 1.351980 -1.700340 3.094342
 H 2.384744 -2.849146 2.908705
 H 1.445632 -5.885965 2.451744
 H 2.280169 -5.518735 1.249736
 H -2.696297 -4.704378 5.695671
 H -2.652186 -4.114618 4.225434
 H -4.462787 -7.702121 -0.222351
 H -4.752532 -6.244451 -0.145402
 H -3.413379 -3.035676 -4.176316
 H -2.662610 -4.260261 -4.527939
 H 2.584906 -3.863037 -2.233989
 H 1.535658 -4.462409 -1.313945
 H -1.357849 3.380830 -2.421544
 H -1.593275 3.835098 -0.940316
 H -1.935580 -2.279408 0.988489
 H -0.521919 -2.358907 1.676168
 H 0.156234 -4.030642 3.963441
 H -0.914501 -4.717620 3.039122
 H 4.968900 -4.446055 -4.503399
 H 3.788904 -3.553980 -4.967453
 H 4.567996 5.153137 2.198001
 H 5.947329 4.418334 2.100696
 H 5.165097 -3.355397 5.105753
 H 4.588974 -4.744592 4.728333
 H -1.451707 -1.610851 -3.009273
 H -2.539294 -0.748235 -3.698669
 H -0.514812 3.942182 -4.714706
 H -0.929364 2.407589 -4.471089
 H 5.405788 2.158809 0.917158
 H 4.079142 1.755031 1.479777
 H 3.530226 1.309309 -2.710802
 H 2.755343 2.416267 -3.394972
 H -5.355043 3.643587 -6.619048
 H -4.777084 2.778782 -5.449865
 H 4.679876 -6.095510 0.107700
 H 5.578173 -4.959120 0.501081
 H -0.161542 -1.101495 -6.405912
 H 0.675004 0.264627 -6.376736
 H -2.485140 0.102751 -6.093784
 H -3.807051 0.345727 -5.323261
 H -0.008832 -0.183509 1.822064
 H 0.929042 -1.099426 0.867594
 H 5.409258 -2.007291 -4.062809
 H 6.318488 -3.061422 -3.408656
 H 4.441850 0.231907 -0.716679
 H 4.789774 -1.079963 -1.426469
 H 0.146053 5.231010 3.799201
 H -1.202719 4.377406 3.386557
 H -4.077502 -0.759989 -2.919948
 H -5.574416 -0.719172 -3.176546
 H -0.605338 -5.061548 -0.725761
 H -0.304151 -3.755255 0.050288
 H 5.174525 4.365994 -7.920617
 H 5.666257 3.221358 -8.758162
 H 3.241443 6.072925 4.892245
 H 4.235068 5.314491 5.917188
 H -5.896198 5.103589 -2.684085
 H -5.491971 6.490412 -2.838718
 H -0.287068 1.584610 -1.752953
 H 0.903331 1.664946 -2.693772
 H -3.868640 -4.669139 -1.098935
 H -4.276761 -4.183609 0.233146
 H -3.517317 6.075509 1.753659
 H -3.678396 6.021911 3.298829
 H -3.477743 3.350548 3.777262
 H -2.243198 2.828873 4.561869
 H -2.627937 -0.875099 -1.158809
 H -3.038580 0.186955 -0.024580
 H -1.891132 -0.731808 4.511648
 H -2.240960 -2.130906 5.092772
 H 0.851484 2.098225 4.455950
 H 0.007314 2.853355 5.583703
 H -4.951884 1.804384 2.278621
 H -5.025274 2.514405 0.905038
 H 3.299475 6.292330 -1.699099
 H 4.371280 5.312135 -2.325329
 H 1.040968 -5.441974 -4.355356
 H 1.739595 -5.545434 -2.909272
 H -4.250210 4.475767 -4.405920
 H -2.883019 4.472530 -3.949181
 H 5.056101 1.169958 7.577312
 H 5.440044 1.409720 6.078019
 H -1.779923 1.746735 2.943286
 H -0.428805 1.775224 2.159058
 H 0.690741 -1.750778 -2.656547
 H 0.657971 -1.387878 -4.161605
 H -0.386651 -3.133727 -4.934402
 H 0.023681 -3.381265 -6.423716
 H 7.100665 -6.177889 4.999023
 H 6.323609 -5.584710 3.953101
 H 3.820679 -3.844562 1.305330
 H 3.736936 -2.523472 0.561203
 H 6.793176 -1.225571 2.809814
 H 5.567764 -1.394082 1.795676
 H 2.073294 3.983196 -5.158444
 H 1.923599 4.958047 -3.873022
 H -0.616817 -8.518959 1.064585
 H -1.266876 -7.181391 1.206910
 H -4.521766 -1.024906 -6.076073
 H -4.260202 -2.326877 -6.863186
 H -3.870247 1.689102 -1.291151
 H -5.003394 0.740523 -1.365820
 H 4.024932 3.515361 -4.358193
 H 5.471039 3.616809 -5.121991
 H 2.461842 -0.626130 -1.014799
 H 0.860985 -0.461130 -1.281654
 H -4.599893 -4.810800 2.485812
 H -6.028598 -4.530802 1.871901
 H 1.383863 3.394408 2.232205
 H 2.130326 2.701691 1.137721
K_POINTS
 1
0.0 0.0 0.0 1.0