
&control
    calculation='scf'
    pseudo_dir = './',
    outdir='./outputs',
    disk_io='high'
/
&system
    ibrav= 1, celldm(1)=20.000000, nat=  192, ntyp= 2,
    ecutwfc = 30.0, nosym=.true., occupations='smearing',
    smearing='m-v', degauss=0.025
/
&electrons
    conv_thr =  1.0d-8,
    mixing_beta = 0.7
/
&ions
    pot_extrapolation='second-order'
    wfc_extrapolation='second-order'
    ion_temperature = 'andersen'
    tempw = 1000

/
ATOMIC_SPECIES
 H  1.01  H.blyp-hgh.UPF
 O  16.0  O.blyp-hgh.UPF
ATOMIC_POSITIONS bohr
 O -5.735555 -1.706603 -0.143012
 O 3.578858 -2.022451 6.267197
 O -5.683511 7.022286 -5.744535
 O 2.016747 2.650029 -0.851694
 O -4.904616 1.156827 4.434190
 O 0.365640 5.965974 6.309781
 O -1.704791 -5.717722 -2.555021
 O 4.035601 1.194774 4.877372
 O -2.521162 -6.756991 5.911837
 O 1.658235 -2.588214 3.511222
 O 2.317431 -5.850405 2.115801
 O -2.888157 -3.989450 5.192760
 O -3.956034 -6.861194 0.058452
 O -3.575848 -3.963166 -4.391392
 O 2.517824 -4.613427 -1.482406
 O -1.319241 3.027958 -1.519773
 O -1.264969 -2.900187 1.260890
 O -0.094857 -4.861430 3.504670
 O 4.206557 -3.931388 -4.068927
 O 5.016790 4.279975 1.965828
 O 5.067749 -3.980316 4.398279
 O -2.430746 -1.483786 -3.185961
 O -1.251269 3.274323 -4.891287
 O 4.738352 1.475171 0.664872
 O 3.209259 1.541995 -3.590541
 O -4.864740 3.721440 -5.870911
 O 4.794061 -5.436064 0.854718
 O 0.764575 -0.668527 -6.218485
 O -2.886837 0.635506 -5.350386
 O 0.557592 -0.974419 1.808933
 O 6.159215 -2.171795 -3.437777
 O 4.046761 -0.466770 -1.297980
 O -0.285631 4.465182 3.246637
 O -4.818238 -0.153673 -2.846567
 O -0.071351 -4.276734 -0.775380
 O 5.779327 3.482494 -7.851864
 O 4.091994 6.047048 5.374745
 O -6.188701 5.999649 -2.399304
 O 0.096481 1.117706 -2.542691
 O -4.674458 -4.241179 -0.651523
 O -3.034988 6.356330 2.548237
 O -2.526103 2.972891 3.705054
 O -2.506531 -0.477615 -0.206351
 O -1.681195 -1.316122 5.211381
 O 0.876167 2.288930 5.387815
 O -4.767847 2.548523 1.812729
 O 3.466567 5.356240 -1.867481
 O 0.933467 -5.821589 -3.438417
 O -3.859512 4.599462 -3.611687
 O 5.859999 1.427618 7.051208
 O -1.242062 1.358712 2.145981
 O 0.295275 -2.068127 -3.487467
 O 0.008504 -3.796163 -5.530167
 O 7.046838 -6.126199 4.023199
 O 3.934624 -2.869850 1.476066
 O 5.852304 -1.512640 2.719106
 O 1.780499 4.063826 -4.282019
 O -1.019524 -7.909176 0.501854
 O -4.466410 -1.393787 -6.960571
 O -4.667096 1.465876 -0.766383
 O 4.463921 4.015766 -5.083311
 O 1.529212 -0.963895 -0.764129
 O -5.165110 -4.163009 1.963053
 O 1.917809 2.542821 2.054018
 H -5.219151 -2.369662 -0.669184
 H -5.946179 -2.300057 0.622706
 H 2.867057 -1.344540 6.295464
 H 3.385376 -2.390560 5.361250
 H -6.096713 6.458423 -5.079770
 H -4.953644 7.613808 -5.508743
 H 2.469060 3.452105 -1.228146
 H 1.103473 3.013759 -0.735625
 H -5.328247 0.308018 4.667425
 H -3.997984 0.867732 4.288263
 H 0.087999 6.899433 6.483662
 H 0.906480 5.810122 7.102134
 H -2.522735 -6.053700 -2.983270
 H -1.438539 -6.619565 -2.283422
 H 3.415742 1.616003 4.259048
 H 4.179776 0.291649 4.535346
 H -3.047268 -7.426495 6.388110
 H -1.666172 -7.207534 5.745754
 H 1.374408 -1.736282 3.034073
 H 2.389750 -2.808180 2.906387
 H 1.418477 -5.957929 2.473820
 H 2.206799 -5.427228 1.243843
 H -2.532646 -4.692744 5.794860
 H -2.522902 -4.196736 4.318217
 H -4.364390 -7.718204 -0.200848
 H -4.679434 -6.239687 -0.219820
 H -3.315121 -3.016717 -4.273395
 H -2.666263 -4.263348 -4.618750
 H 2.658215 -4.012470 -2.241766
 H 1.548425 -4.466863 -1.194126
 H -1.381798 3.335138 -2.421820
 H -1.521973 3.711349 -0.821810
 H -1.966567 -2.293385 0.901502
 H -0.627887 -2.264361 1.740400
 H 0.127893 -4.008537 3.940308
 H -0.919098 -4.688240 2.997210
 H 4.971648 -4.400920 -4.451134
 H 3.696652 -3.365176 -4.685491
 H 4.660004 5.168150 2.212890
 H 5.976448 4.324388 2.081332
 H 5.258298 -3.322146 5.082460
 H 4.454027 -4.673217 4.695244
 H -1.462976 -1.607993 -3.017667
 H -2.464554 -0.686343 -3.773837
 H -0.533884 3.907872 -4.687451
 H -0.922736 2.464192 -4.470202
 H 5.471632 2.107356 0.773965
 H 4.204439 1.595064 1.473810
 H 3.846534 1.351952 -2.855328
 H 2.744969 2.405099 -3.527101
 H -5.468486 3.557313 -6.676239
 H -4.608437 2.794650 -5.660467
 H 4.542247 -5.982521 0.062040
 H 5.462498 -4.837763 0.444374
 H -0.113424 -1.085958 -6.336893
 H 0.583073 0.246258 -6.559533
 H -2.512427 0.044740 -6.035089
 H -3.809156 0.336842 -5.263832
 H 0.201469 -0.060828 1.684373
 H 1.003899 -1.049805 0.914814
 H 5.469245 -1.960205 -4.064409
 H 6.306172 -3.126111 -3.401060
 H 4.360910 0.203220 -0.644262
 H 4.816733 -1.087997 -1.405254
 H 0.085979 5.220727 3.730203
 H -1.238333 4.422286 3.370981
 H -4.111012 -0.784881 -3.076607
 H -5.608478 -0.657565 -3.136324
 H -0.434273 -5.182639 -0.700382
 H -0.335935 -3.846943 0.088875
 H 5.276443 4.306894 -7.988900
 H 5.829060 3.004110 -8.689878
 H 3.199245 5.982788 4.980321
 H 4.013542 5.252266 5.965295
 H -5.901796 5.076456 -2.537345
 H -5.593828 6.694427 -2.782588
 H -0.293563 1.647574 -1.813228
 H 0.904813 1.609967 -2.784459
 H -3.871203 -4.683800 -0.976457
 H -4.424270 -4.058258 0.317835
 H -3.532253 6.147203 1.709488
 H -3.647246 6.044514 3.243121
 H -3.451219 3.211302 3.881782
 H -2.188977 2.884822 4.621438
 H -2.728104 -0.796197 -1.116782
 H -3.251426 0.142276 0.003946
 H -1.793928 -0.603863 4.548938
 H -2.356125 -2.027234 5.071441
 H 0.914633 2.013443 4.451883
 H 0.195497 2.914712 5.699777
 H -5.127640 1.748141 2.260595
 H -5.086927 2.595256 0.892175
 H 3.202269 6.331603 -1.952457
 H 4.388234 5.398601 -2.217130
 H 1.061599 -5.517059 -4.344894
 H 1.692436 -5.461057 -2.936255
 H -4.304192 4.511001 -4.489252
 H -2.908377 4.441827 -3.821366
 H 5.014246 1.304044 7.514265
 H 5.571843 1.493743 6.121735
 H -1.765424 1.749629 2.865603
 H -0.372213 1.809337 2.349513
 H 0.672311 -1.759765 -2.645105
 H 0.780797 -1.501627 -4.143463
 H -0.334864 -3.044822 -4.986323
 H 0.063510 -3.404471 -6.422963
 H 7.027269 -6.163497 5.015896
 H 6.240068 -5.548701 3.966134
 H 3.852251 -3.832783 1.290010
 H 3.635494 -2.575255 0.588664
 H 6.814658 -1.331812 2.649974
 H 5.427139 -1.196572 1.885389
 H 2.150334 3.969644 -5.179703
 H 1.850033 4.929422 -3.786156
 H -0.548395 -8.638343 0.941846
 H -1.139246 -7.263000 1.220558
 H -4.449938 -1.111485 -6.025545
 H -4.365109 -2.368762 -6.928121
 H -3.794071 1.645817 -1.174767
 H -5.107546 0.811706 -1.361141
 H 4.112483 3.560798 -4.298747
 H 5.382784 3.762176 -5.294508
 H 2.432429 -0.664492 -1.014985
 H 0.906331 -0.445655 -1.315466
 H -4.532518 -4.892653 2.200590
 H -6.026461 -4.585718 1.836209
 H 1.291637 3.259225 2.349958
 H 2.026301 2.688028 1.079521
K_POINTS
 1
0.0 0.0 0.0 1.0