
&control
    calculation='scf'
    pseudo_dir = './',
    outdir='./outputs',
    disk_io='high'
/
&system
    ibrav= 1, celldm(1)=20.000000, nat=  192, ntyp= 2,
    ecutwfc = 30.0, nosym=.true., occupations='smearing',
    smearing='m-v', degauss=0.025
/
&electrons
    conv_thr =  1.0d-8,
    mixing_beta = 0.7
/
&ions
    pot_extrapolation='second-order'
    wfc_extrapolation='second-order'
    ion_temperature = 'andersen'
    tempw = 1000

/
ATOMIC_SPECIES
 H  1.01  H.blyp-hgh.UPF
 O  16.0  O.blyp-hgh.UPF
ATOMIC_POSITIONS bohr
 O -5.794656 -1.789941 -0.053020
 O 3.687228 -1.842625 6.163740
 O -5.668968 7.132578 -5.714922
 O 2.073560 2.750969 -0.759722
 O -4.878111 1.233776 4.407357
 O 0.370095 5.939410 6.325181
 O -1.896889 -5.708258 -2.584259
 O 4.261566 1.064255 4.866269
 O -2.377067 -6.743529 6.080129
 O 1.718113 -2.690599 3.535210
 O 2.175661 -5.725263 2.077655
 O -2.790813 -4.124449 5.287256
 O -3.837552 -6.822783 0.123699
 O -3.511993 -3.868187 -4.482805
 O 2.493154 -4.703367 -1.327731
 O -1.217183 2.961111 -1.585670
 O -1.340126 -2.908356 1.193186
 O -0.181600 -4.872510 3.492988
 O 4.126878 -3.881281 -3.880484
 O 5.129390 4.244253 1.832567
 O 5.027708 -4.008494 4.455309
 O -2.396839 -1.257776 -3.304959
 O -1.297596 3.303936 -4.880379
 O 4.836738 1.337847 0.446643
 O 3.338971 1.499605 -3.604804
 O -4.996624 3.710074 -6.099958
 O 4.865348 -5.434181 0.839681
 O 0.856629 -0.544213 -6.161908
 O -2.910767 0.647525 -5.355321
 O 0.510181 -0.888269 1.763623
 O 6.097749 -2.302938 -3.402019
 O 4.040314 -0.495183 -1.226759
 O -0.440311 4.527070 3.026031
 O -4.782418 -0.172264 -2.764550
 O -0.024801 -4.370924 -0.713857
 O 5.856144 3.254434 -7.840011
 O 4.011932 5.726736 5.358968
 O -6.347783 6.013984 -2.563061
 O 0.161484 0.984341 -2.499626
 O -4.724361 -4.268884 -0.617993
 O -3.020571 6.512398 2.448124
 O -2.439433 3.057023 3.926903
 O -2.639566 -0.230398 -0.100534
 O -1.638364 -1.268037 5.112016
 O 1.057493 2.150225 5.401788
 O -4.989427 2.410879 1.820028
 O 3.415354 5.394822 -1.816699
 O 0.975847 -5.916139 -3.426023
 O -4.075620 4.654518 -3.737512
 O 5.917838 1.469505 7.198261
 O -1.056632 1.419856 2.100913
 O 0.325158 -2.119198 -3.413900
 O -0.119861 -3.843398 -5.577924
 O 6.912983 -5.970228 4.066174
 O 3.872440 -2.876968 1.476804
 O 5.834088 -1.464033 2.768107
 O 1.753592 4.011669 -4.375955
 O -0.734734 -7.986577 0.430319
 O -4.510620 -1.500057 -6.904139
 O -4.711462 1.561797 -0.750203
 O 4.249181 4.157079 -5.185547
 O 1.467165 -0.889537 -0.694660
 O -5.206127 -4.178909 1.931636
 O 1.926483 2.472570 1.976495
 H -5.322786 -2.121678 -0.836858
 H -5.997780 -2.506235 0.589613
 H 2.823085 -1.390559 6.298466
 H 3.511112 -2.445718 5.419830
 H -5.998291 6.547744 -5.000341
 H -4.831936 7.279651 -5.257552
 H 2.725150 3.478545 -0.701308
 H 1.191352 3.145922 -0.974189
 H -5.250070 0.446504 4.840646
 H -4.000396 0.975280 4.126701
 H -0.025177 6.818310 6.528068
 H 0.751988 5.521681 7.116321
 H -2.728458 -5.813260 -3.080406
 H -1.687775 -6.440246 -1.985531
 H 3.451090 1.592925 4.705717
 H 4.058992 0.187594 4.497415
 H -2.964633 -7.515638 6.273933
 H -1.452877 -7.042604 5.945529
 H 1.239824 -1.938570 3.083517
 H 2.488389 -2.972624 2.998347
 H 1.273464 -5.793153 2.477907
 H 1.940560 -5.225146 1.274915
 H -2.331106 -4.716249 5.914607
 H -2.421041 -4.479444 4.444438
 H -3.952238 -7.768076 -0.071491
 H -4.441776 -6.251283 -0.394519
 H -3.193911 -2.981656 -4.218099
 H -2.775586 -4.444298 -4.718486
 H 2.909477 -4.145876 -2.014049
 H 1.616646 -4.280302 -1.036436
 H -1.570651 3.453729 -2.338954
 H -1.353428 3.611374 -0.841419
 H -1.926088 -2.413425 0.567875
 H -0.847903 -2.121189 1.616924
 H 0.427230 -4.040897 3.451993
 H -0.846793 -4.655724 2.804251
 H 4.592490 -4.172943 -4.708258
 H 3.841431 -3.072418 -4.340419
 H 4.906927 5.158050 2.065006
 H 6.096208 4.189895 2.033367
 H 5.432584 -3.403867 5.102631
 H 4.322162 -4.388335 5.015272
 H -1.532561 -1.717933 -3.185571
 H -2.143535 -0.505234 -3.895245
 H -0.529211 3.879284 -4.743692
 H -1.072366 2.422332 -4.550511
 H 5.520273 2.032472 0.410658
 H 4.488793 1.378430 1.352270
 H 4.158110 1.715609 -3.108312
 H 2.941899 2.412252 -3.608031
 H -5.653605 3.553347 -6.893547
 H -4.365526 2.982184 -6.098724
 H 4.110049 -5.809064 0.304897
 H 5.094398 -4.664251 0.285673
 H 0.078306 -1.125330 -6.329477
 H 0.751475 0.262897 -6.720198
 H -2.652310 -0.153312 -5.851345
 H -3.830688 0.600582 -5.037020
 H 0.389609 0.082624 1.724829
 H 1.113724 -1.160329 1.030477
 H 5.473307 -2.191155 -4.138396
 H 6.081688 -3.273655 -3.402944
 H 4.233285 0.125851 -0.476838
 H 4.828076 -1.109441 -1.199059
 H -0.167758 5.304944 3.552878
 H -1.411865 4.449919 3.282581
 H -4.116518 -0.839997 -3.045189
 H -5.645847 -0.600957 -2.920386
 H -0.134070 -5.340186 -0.743153
 H -0.533854 -3.952347 0.045539
 H 5.619646 4.050990 -8.375939
 H 6.171512 2.601536 -8.492731
 H 3.164744 5.970146 4.953839
 H 3.906556 5.352515 6.265626
 H -5.520232 5.436074 -2.460949
 H -5.715379 6.789077 -2.520837
 H -0.338308 1.761628 -2.146231
 H 0.975648 1.337320 -2.882569
 H -3.741005 -4.435257 -0.707356
 H -4.974037 -3.995852 0.317723
 H -3.241108 5.974873 1.624619
 H -3.668468 6.278467 3.149496
 H -3.384604 2.866560 3.931124
 H -2.086235 3.034171 4.827476
 H -2.756929 -0.639048 -0.996564
 H -3.572002 -0.114357 0.219314
 H -1.597405 -0.575413 4.425532
 H -2.547678 -1.653770 4.991973
 H 0.805427 2.242954 4.455050
 H 0.606611 2.986561 5.589428
 H -5.500788 1.602572 2.050176
 H -4.961435 2.281271 0.823208
 H 2.860222 6.124466 -2.189381
 H 4.371473 5.610718 -1.929156
 H 0.925727 -5.270196 -4.161570
 H 1.392471 -5.313351 -2.746518
 H -4.406934 4.365720 -4.651734
 H -3.210258 4.176373 -3.680983
 H 4.977392 1.554407 7.405730
 H 5.875181 1.712521 6.260870
 H -1.866062 1.838030 2.399327
 H -0.300761 1.791588 2.633622
 H 0.672934 -1.976392 -2.496845
 H 0.936528 -1.645640 -4.023380
 H -0.054874 -3.172740 -4.847756
 H 0.223837 -3.479680 -6.410481
 H 7.002184 -6.059281 5.039257
 H 6.254522 -5.238224 3.972392
 H 4.039993 -3.835047 1.509245
 H 3.347535 -2.572804 0.716355
 H 6.612178 -1.573371 2.178386
 H 5.261485 -0.810773 2.312482
 H 2.503017 4.236313 -4.993131
 H 1.814648 4.865333 -3.864489
 H -0.444129 -8.847880 0.796316
 H -0.923472 -7.556154 1.303148
 H -4.421451 -1.529924 -5.937253
 H -4.673473 -2.439852 -7.132706
 H -3.758450 1.563797 -0.994047
 H -5.001582 0.976442 -1.507433
 H 4.434198 3.725859 -4.330054
 H 5.074487 3.875872 -5.658231
 H 2.415597 -0.886392 -0.962192
 H 1.039076 -0.132508 -1.175714
 H -4.453396 -4.824887 1.847209
 H -6.009217 -4.726266 2.053957
 H 1.316617 3.045057 2.462259
 H 1.813721 2.664620 1.002160
K_POINTS
 1
0.0 0.0 0.0 1.0