
&control
    calculation='scf'
    pseudo_dir = './',
    outdir='./outputs',
    disk_io='high'
/
&system
    ibrav= 1, celldm(1)=20.000000, nat=  192, ntyp= 2,
    ecutwfc = 30.0, nosym=.true., occupations='smearing',
    smearing='m-v', degauss=0.025
/
&electrons
    conv_thr =  1.0d-8,
    mixing_beta = 0.7
/
&ions
    pot_extrapolation='second-order'
    wfc_extrapolation='second-order'
    ion_temperature = 'andersen'
    tempw = 1000

/
ATOMIC_SPECIES
 H  1.01  H.blyp-hgh.UPF
 O  16.0  O.blyp-hgh.UPF
ATOMIC_POSITIONS bohr
 O -5.809654 -1.799749 -0.036391
 O 3.704830 -1.808390 6.144735
 O -5.664915 7.152977 -5.690266
 O 2.083207 2.773021 -0.733862
 O -4.871486 1.242370 4.401857
 O 0.370753 5.924020 6.311032
 O -1.934467 -5.693647 -2.590435
 O 4.311085 1.035019 4.862471
 O -2.350824 -6.734446 6.112048
 O 1.725590 -2.711458 3.545073
 O 2.144926 -5.702406 2.068325
 O -2.763424 -4.151166 5.299034
 O -3.809693 -6.817335 0.135016
 O -3.507299 -3.852411 -4.497319
 O 2.485468 -4.714384 -1.295568
 O -1.204316 2.947525 -1.602134
 O -1.362274 -2.899390 1.179223
 O -0.200550 -4.862368 3.488613
 O 4.106256 -3.873780 -3.857965
 O 5.156847 4.237204 1.809291
 O 5.009366 -4.009554 4.467645
 O -2.381307 -1.212714 -3.336147
 O -1.306841 3.311605 -4.872388
 O 4.856083 1.304199 0.406059
 O 3.371684 1.495857 -3.613006
 O -5.006790 3.717310 -6.138598
 O 4.873525 -5.427825 0.819031
 O 0.876056 -0.523903 -6.147261
 O -2.910245 0.652969 -5.351961
 O 0.506479 -0.872003 1.759232
 O 6.090826 -2.325039 -3.398202
 O 4.043883 -0.507110 -1.214391
 O -0.470558 4.546941 2.990193
 O -4.780595 -0.172493 -2.753324
 O -0.006317 -4.387777 -0.697585
 O 5.860488 3.217199 -7.845042
 O 3.987500 5.664416 5.349640
 O -6.356939 6.015266 -2.594972
 O 0.175940 0.948190 -2.494491
 O -4.734390 -4.279297 -0.630150
 O -3.016258 6.543516 2.423512
 O -2.424950 3.073611 3.972997
 O -2.678847 -0.185802 -0.083981
 O -1.631700 -1.253076 5.092618
 O 1.088004 2.126709 5.389770
 O -5.040689 2.384223 1.818148
 O 3.410912 5.385919 -1.806635
 O 1.000711 -5.921894 -3.426938
 O -4.119395 4.670835 -3.756276
 O 5.923546 1.479622 7.227612
 O -1.011117 1.430613 2.092286
 O 0.334668 -2.130695 -3.399332
 O -0.146936 -3.851878 -5.588876
 O 6.888126 -5.950735 4.066287
 O 3.854167 -2.872263 1.481115
 O 5.838324 -1.444312 2.781283
 O 1.747411 4.005878 -4.398838
 O -0.674637 -8.002916 0.415261
 O -4.521430 -1.527417 -6.891500
 O -4.720368 1.588557 -0.747374
 O 4.223494 4.174862 -5.197809
 O 1.452874 -0.877451 -0.693415
 O -5.215499 -4.176952 1.916404
 O 1.926151 2.447378 1.967876
 H -5.356192 -2.095811 -0.836335
 H -6.018836 -2.537926 0.557513
 H 2.822493 -1.388490 6.286302
 H 3.531185 -2.432167 5.433165
 H -6.028666 6.532145 -5.015666
 H -4.788352 7.278271 -5.257388
 H 2.723025 3.505701 -0.615911
 H 1.269127 3.203302 -1.059255
 H -5.254354 0.472445 4.872936
 H -3.980942 1.001014 4.076783
 H -0.014075 6.794273 6.586481
 H 0.685251 5.468648 7.118115
 H -2.787446 -5.855189 -3.060632
 H -1.810037 -6.432012 -1.957669
 H 3.467388 1.551699 4.790685
 H 3.995500 0.180083 4.500181
 H -2.913621 -7.534505 6.226161
 H -1.412202 -7.033397 6.049077
 H 1.252956 -2.010784 3.100215
 H 2.505846 -2.994905 2.996293
 H 1.246041 -5.719616 2.494071
 H 1.895406 -5.187604 1.279457
 H -2.338625 -4.722939 5.948747
 H -2.443421 -4.511300 4.438969
 H -3.894739 -7.754706 -0.062874
 H -4.416284 -6.289650 -0.412462
 H -3.122799 -3.009236 -4.184365
 H -2.761634 -4.427165 -4.720803
 H 2.952925 -4.118639 -1.925721
 H 1.648942 -4.214732 -1.057805
 H -1.614010 3.492095 -2.322024
 H -1.305487 3.612134 -0.869026
 H -1.917349 -2.470778 0.507785
 H -0.842563 -2.130562 1.558488
 H 0.506206 -4.136550 3.331880
 H -0.833300 -4.674649 2.769125
 H 4.464084 -4.184194 -4.707190
 H 3.843749 -3.013454 -4.256471
 H 4.936461 5.156583 2.002482
 H 6.124262 4.150664 1.998899
 H 5.494584 -3.419456 5.082446
 H 4.339697 -4.380076 5.078341
 H -1.562462 -1.746292 -3.221510
 H -2.106247 -0.451669 -3.897768
 H -0.511073 3.868793 -4.762561
 H -1.111149 2.389203 -4.587898
 H 5.504111 2.028892 0.337623
 H 4.530278 1.391399 1.322181
 H 4.164156 1.764629 -3.117168
 H 2.972409 2.405898 -3.619423
 H -5.636352 3.556562 -6.949006
 H -4.358571 2.992542 -6.190179
 H 4.047304 -5.801971 0.426772
 H 5.049513 -4.654781 0.253435
 H 0.119163 -1.119564 -6.361821
 H 0.828932 0.288984 -6.694083
 H -2.720820 -0.187908 -5.831847
 H -3.824005 0.653619 -5.001066
 H 0.380262 0.094162 1.747995
 H 1.094733 -1.160834 1.010584
 H 5.468614 -2.205607 -4.158461
 H 6.040515 -3.299831 -3.360866
 H 4.235101 0.135572 -0.465319
 H 4.809508 -1.110200 -1.136264
 H -0.184038 5.350236 3.496461
 H -1.468427 4.398970 3.250084
 H -4.091416 -0.843657 -2.980483
 H -5.642870 -0.609503 -2.877851
 H -0.116635 -5.353057 -0.729357
 H -0.574072 -3.982552 0.027307
 H 5.682658 3.973232 -8.458738
 H 6.243655 2.516909 -8.436743
 H 3.158146 5.961285 4.942301
 H 3.900360 5.412085 6.307393
 H -5.518062 5.490034 -2.507178
 H -5.829300 6.831785 -2.446731
 H -0.322361 1.761729 -2.221062
 H 1.005367 1.278709 -2.886101
 H -3.726769 -4.314176 -0.599445
 H -5.008313 -4.064814 0.318885
 H -3.162339 5.933100 1.659050
 H -3.700965 6.346518 3.124914
 H -3.373772 2.817541 3.966328
 H -2.110533 3.052463 4.891909
 H -2.707674 -0.599309 -0.965954
 H -3.590186 -0.168994 0.289928
 H -1.556161 -0.596460 4.378073
 H -2.557571 -1.583206 4.984504
 H 0.830366 2.255579 4.468807
 H 0.710955 2.992608 5.646861
 H -5.542324 1.578224 2.023569
 H -4.878022 2.175711 0.837231
 H 2.825108 6.067114 -2.170433
 H 4.350186 5.673925 -1.889736
 H 0.832715 -5.232827 -4.114692
 H 1.284621 -5.351248 -2.648099
 H -4.438485 4.307822 -4.667119
 H -3.305012 4.119805 -3.699540
 H 4.958298 1.545916 7.420040
 H 5.961040 1.735290 6.284997
 H -1.859345 1.884241 2.302324
 H -0.329830 1.801137 2.668474
 H 0.680889 -2.026586 -2.466696
 H 0.949357 -1.617686 -3.961136
 H 0.011234 -3.258846 -4.818152
 H 0.251224 -3.479677 -6.397018
 H 6.976230 -5.996173 5.043416
 H 6.283994 -5.168867 4.045494
 H 4.039742 -3.831848 1.526160
 H 3.289630 -2.636657 0.725707
 H 6.527391 -1.606425 2.107961
 H 5.253231 -0.775937 2.398992
 H 2.556686 4.231447 -4.919299
 H 1.780827 4.820694 -3.854352
 H -0.417535 -8.881505 0.782216
 H -0.872728 -7.620085 1.319688
 H -4.437594 -1.639417 -5.928685
 H -4.728135 -2.443436 -7.181143
 H -3.758423 1.565485 -0.937839
 H -4.952129 1.010882 -1.532363
 H 4.450532 3.803082 -4.315025
 H 4.983526 3.911723 -5.781503
 H 2.414315 -0.927886 -0.938374
 H 1.063049 -0.056895 -1.106641
 H -4.423817 -4.786607 1.875486
 H -5.992019 -4.750764 2.116683
 H 1.344407 3.076834 2.423040
 H 1.776542 2.667212 1.008648
K_POINTS
 1
0.0 0.0 0.0 1.0