
&control
    calculation='scf'
    pseudo_dir = './',
    outdir='./outputs',
    disk_io='high'
/
&system
    ibrav= 1, celldm(1)=20.000000, nat=  192, ntyp= 2,
    ecutwfc = 30.0, nosym=.true., occupations='smearing',
    smearing='m-v', degauss=0.025
/
&electrons
    conv_thr =  1.0d-8,
    mixing_beta = 0.7
/
&ions
    pot_extrapolation='second-order'
    wfc_extrapolation='second-order'
    ion_temperature = 'andersen'
    tempw = 1000

/
ATOMIC_SPECIES
 H  1.01  H.blyp-hgh.UPF
 O  16.0  O.blyp-hgh.UPF
ATOMIC_POSITIONS bohr
 O -5.926758 -1.817216 0.042990
 O 3.763880 -1.628471 6.069107
 O -5.674766 7.257935 -5.542871
 O 2.122727 2.968282 -0.595150
 O -4.799838 1.243533 4.390189
 O 0.359987 5.803648 6.235150
 O -2.230852 -5.679806 -2.601205
 O 4.478209 0.829011 4.780058
 O -2.205513 -6.688385 6.298154
 O 1.783895 -2.891883 3.598167
 O 1.960910 -5.564877 1.979450
 O -2.649274 -4.238432 5.298639
 O -3.624484 -6.861958 0.138836
 O -3.431558 -3.754741 -4.527929
 O 2.476016 -4.634344 -1.101568
 O -1.216770 2.944183 -1.741959
 O -1.475751 -2.863836 1.074109
 O -0.258658 -4.825577 3.400947
 O 3.930087 -3.849042 -3.741701
 O 5.313394 4.175599 1.702300
 O 4.869598 -3.958883 4.563086
 O -2.290551 -1.024452 -3.480074
 O -1.371601 3.327733 -4.818130
 O 4.990020 1.179787 0.280703
 O 3.567875 1.532113 -3.679198
 O -4.889020 3.799526 -6.302312
 O 4.877604 -5.394924 0.709615
 O 1.028339 -0.474069 -6.034784
 O -2.909127 0.712893 -5.322798
 O 0.503687 -0.865735 1.762685
 O 6.108491 -2.399743 -3.377138
 O 4.047412 -0.644714 -1.154314
 O -0.651443 4.680019 2.815241
 O -4.791115 -0.156524 -2.676104
 O 0.072236 -4.479528 -0.571249
 O 5.812295 3.053480 -8.011039
 O 3.819231 5.433535 5.232502
 O -6.400385 6.081564 -2.775565
 O 0.295450 0.736773 -2.499625
 O -4.726568 -4.348893 -0.695973
 O -3.000243 6.765886 2.375899
 O -2.381570 3.134646 4.266197
 O -2.872830 0.043848 0.063436
 O -1.594751 -1.123279 4.970947
 O 1.247511 2.024754 5.321317
 O -5.284107 2.200291 1.763715
 O 3.419878 5.234508 -1.745062
 O 1.134119 -5.872458 -3.370365
 O -4.367523 4.709134 -3.880824
 O 5.957673 1.534117 7.449861
 O -0.778642 1.522884 2.037419
 O 0.441411 -2.216900 -3.306411
 O -0.264859 -3.913246 -5.587340
 O 6.779498 -5.828991 4.101576
 O 3.699142 -2.854499 1.491528
 O 5.920735 -1.298542 2.884623
 O 1.679137 3.966718 -4.511472
 O -0.329525 -8.137267 0.356419
 O -4.593293 -1.712397 -6.790655
 O -4.714376 1.801311 -0.792839
 O 4.127236 4.236324 -5.163514
 O 1.392491 -0.860146 -0.714584
 O -5.256219 -4.171646 1.824086
 O 1.855345 2.337097 1.961833
 H -5.472976 -2.061711 -0.797140
 H -6.139274 -2.725760 0.355781
 H 2.855560 -1.245301 6.176811
 H 3.682790 -2.288419 5.323195
 H -5.951102 6.466334 -5.028441
 H -4.759988 7.450201 -5.213327
 H 2.815166 3.615516 -0.339642
 H 1.809556 3.304501 -1.465360
 H -5.051073 0.445767 4.924222
 H -4.133353 0.843464 3.805029
 H 0.253628 6.749541 6.542867
 H 0.680502 5.182011 6.932184
 H -2.975137 -5.895265 -3.190759
 H -2.298510 -6.094859 -1.720400
 H 3.984715 1.473917 5.301431
 H 4.024905 -0.045157 4.890094
 H -2.728923 -7.466955 6.079393
 H -1.273531 -6.903005 6.539879
 H 1.284421 -2.133588 3.144124
 H 2.598461 -2.904901 3.050839
 H 1.232689 -5.569442 2.632052
 H 1.690181 -5.056896 1.187827
 H -2.405878 -5.058164 5.825721
 H -2.483664 -4.716202 4.474084
 H -3.733756 -7.794522 -0.155222
 H -4.281908 -6.309140 -0.353407
 H -3.071176 -3.034227 -3.957750
 H -2.698229 -4.347648 -4.792305
 H 3.215103 -4.211635 -1.561242
 H 1.651433 -4.106810 -0.990717
 H -1.660968 3.456349 -2.420329
 H -0.891095 3.541142 -1.011756
 H -1.990016 -2.507755 0.318891
 H -0.810884 -2.149617 1.182382
 H 0.525376 -4.227082 3.233018
 H -0.916445 -4.728404 2.675136
 H 3.624551 -4.338467 -4.562644
 H 3.616445 -2.918330 -3.872812
 H 5.334492 5.160466 1.604508
 H 6.241275 3.944452 1.515530
 H 5.628262 -3.446296 4.913695
 H 4.791546 -4.674731 5.250061
 H -1.423756 -1.517926 -3.430546
 H -1.988951 -0.197801 -3.922798
 H -0.408189 3.512555 -4.729494
 H -1.334191 2.351002 -4.938129
 H 5.420783 1.904520 -0.222931
 H 4.478578 1.625348 0.992187
 H 4.121519 1.678317 -2.884233
 H 2.917170 2.235148 -3.777812
 H -5.640790 3.834919 -7.000191
 H -4.412471 2.958469 -6.445224
 H 3.959146 -5.649017 0.986136
 H 4.707975 -4.848319 -0.085486
 H 0.315986 -0.727829 -6.642161
 H 1.166448 0.467078 -6.301816
 H -3.099458 -0.102910 -5.827945
 H -3.724303 0.841305 -4.782143
 H 0.091106 0.036132 1.874847
 H 0.816988 -0.794452 0.826067
 H 5.657656 -2.164025 -4.194629
 H 5.750099 -3.297468 -3.197535
 H 4.261962 0.235721 -0.740271
 H 4.741497 -1.217756 -0.756924
 H -0.646427 5.600264 3.174712
 H -1.334468 4.264294 3.359466
 H -3.955896 -0.674961 -2.658487
 H -5.483587 -0.857479 -2.813474
 H -0.163245 -5.424355 -0.546938
 H -0.591478 -4.008183 -0.004667
 H 5.715425 3.392229 -8.936549
 H 6.368388 2.250047 -8.041627
 H 2.996285 5.738125 4.799330
 H 3.714464 5.773622 6.134676
 H -5.521283 5.676633 -2.945778
 H -6.410754 6.776778 -2.066606
 H -0.160203 1.617556 -2.376944
 H 1.171077 0.875988 -2.916881
 H -4.059582 -3.720894 -0.417749
 H -5.155706 -4.694470 0.113130
 H -3.040690 5.985517 1.777176
 H -3.723452 6.542179 3.006199
 H -3.306953 2.846792 4.154598
 H -2.172394 3.125575 5.233577
 H -2.643494 -0.262942 -0.845430
 H -3.581886 -0.598658 0.246913
 H -1.380523 -0.813660 4.065217
 H -2.504898 -1.483171 4.949669
 H 1.210231 2.430072 4.403162
 H 1.490958 2.726626 5.978212
 H -5.776221 1.451571 2.163877
 H -4.714709 1.795765 1.078834
 H 2.718007 5.892283 -1.931585
 H 4.231040 5.761863 -1.834169
 H 0.399004 -5.342645 -3.756157
 H 0.721109 -5.880007 -2.479171
 H -4.906298 4.400120 -4.634079
 H -3.790024 3.981416 -3.605006
 H 5.032872 1.214835 7.333436
 H 6.155764 1.848672 6.551053
 H -1.611199 1.936556 1.764757
 H -0.496985 2.023627 2.839895
 H 0.602152 -2.181551 -2.349710
 H 0.687833 -1.302514 -3.585466
 H 0.281555 -3.611746 -4.819338
 H 0.224711 -3.527215 -6.345233
 H 7.091031 -6.009113 5.017165
 H 6.185680 -5.036935 4.101203
 H 4.054603 -3.747158 1.749798
 H 3.025231 -3.027902 0.801046
 H 5.907887 -1.623460 1.960361
 H 5.161180 -0.671024 2.845117
 H 2.669851 3.995623 -4.678142
 H 1.496804 4.544900 -3.726485
 H -0.018347 -9.050062 0.505515
 H -0.442792 -7.800512 1.304546
 H -4.539683 -2.329317 -6.010443
 H -4.787734 -2.286979 -7.560341
 H -3.808665 1.607416 -0.458067
 H -4.808410 1.068471 -1.475222
 H 4.941457 4.215619 -4.616019
 H 4.389059 3.910361 -6.048809
 H 2.419811 -0.785127 -0.799648
 H 1.131373 0.070079 -0.916979
 H -4.358047 -4.308212 2.215572
 H -5.803138 -4.781193 2.335411
 H 1.843453 3.294604 2.225186
 H 1.864488 2.332654 0.980824
K_POINTS
 1
0.0 0.0 0.0 1.0