
&control
    calculation='scf'
    pseudo_dir = './',
    outdir='./outputs',
    disk_io='high'
/
&system
    ibrav= 1, celldm(1)=20.000000, nat=  192, ntyp= 2,
    ecutwfc = 30.0, nosym=.true., occupations='smearing',
    smearing='m-v', degauss=0.025
/
&electrons
    conv_thr =  1.0d-8,
    mixing_beta = 0.7
/
&ions
    pot_extrapolation='second-order'
    wfc_extrapolation='second-order'
    ion_temperature = 'andersen'
    tempw = 1000

/
ATOMIC_SPECIES
 H  1.01  H.blyp-hgh.UPF
 O  16.0  O.blyp-hgh.UPF
ATOMIC_POSITIONS bohr
 O -6.064509 -1.864688 0.089702
 O 3.734707 -1.421715 6.003806
 O -5.666186 7.340480 -5.440390
 O 2.284831 3.194527 -0.528475
 O -4.567447 1.035111 4.469006
 O 0.455472 5.629974 6.130352
 O -2.532981 -5.722553 -2.558533
 O 4.588567 0.456910 4.740379
 O -2.175588 -6.542472 6.574229
 O 1.780864 -3.010056 3.655759
 O 1.878493 -5.469518 1.766969
 O -2.600060 -4.381297 5.161973
 O -3.357496 -7.039190 0.048588
 O -3.360772 -3.650196 -4.546203
 O 2.682571 -4.418776 -0.830416
 O -1.230993 2.936656 -1.971280
 O -1.530690 -2.792994 0.870813
 O -0.308218 -4.761122 3.231429
 O 3.556712 -3.843762 -3.592585
 O 5.533994 4.131988 1.540280
 O 4.712232 -3.902870 4.736753
 O -2.123518 -0.908427 -3.498258
 O -1.421409 3.209928 -4.755069
 O 5.077033 1.221863 0.176674
 O 3.632780 1.502903 -3.708802
 O -4.695099 3.943285 -6.498085
 O 4.771987 -5.391802 0.621721
 O 1.237890 -0.465647 -5.879303
 O -2.984319 0.927672 -5.268073
 O 0.379746 -0.985805 1.786702
 O 6.198804 -2.411579 -3.368030
 O 3.997404 -0.922127 -1.140525
 O -0.859425 4.894516 2.749777
 O -4.771934 -0.208108 -2.525530
 O 0.031424 -4.595215 -0.341466
 O 5.651405 3.011128 -8.257695
 O 3.524360 5.350474 4.905064
 O -6.515068 6.208211 -2.911762
 O 0.449523 0.559493 -2.582662
 O -4.758170 -4.540371 -0.809633
 O -2.965088 7.057361 2.498098
 O -2.266034 3.199109 4.615493
 O -3.044291 0.188071 0.269230
 O -1.555353 -0.932194 4.751142
 O 1.527617 2.037403 5.272791
 O -5.391465 1.906798 1.843723
 O 3.389692 4.992058 -1.696174
 O 1.068583 -5.807745 -3.185948
 O -4.714705 4.744508 -3.953371
 O 6.096255 1.586615 7.720623
 O -0.597067 1.634981 1.977996
 O 0.570422 -2.262913 -3.177204
 O -0.215389 -4.052200 -5.466450
 O 6.806433 -5.788712 4.070012
 O 3.494229 -2.824768 1.527314
 O 5.999418 -1.033769 3.000426
 O 1.564114 3.811912 -4.519315
 O 0.090054 -8.328537 0.213942
 O -4.690721 -2.003323 -6.667796
 O -4.639472 2.127950 -0.943400
 O 4.194434 4.247292 -4.981177
 O 1.392097 -0.880130 -0.654324
 O -5.328422 -4.098114 1.754679
 O 1.870207 2.349037 2.060831
 H -6.008925 -1.872679 -0.893299
 H -5.979394 -2.808698 0.290691
 H 2.763084 -1.252645 6.083205
 H 3.761286 -2.195905 5.381868
 H -5.976602 6.844461 -4.642340
 H -5.195873 8.148198 -5.103688
 H 2.877402 3.982601 -0.423001
 H 2.357460 3.072357 -1.494018
 H -4.890211 0.175019 4.848532
 H -4.737488 0.844122 3.500661
 H 0.477085 6.614843 6.114647
 H 1.295283 5.246039 6.465823
 H -3.128950 -6.043788 -3.274652
 H -3.177241 -5.492600 -1.849435
 H 4.775612 1.403540 4.894425
 H 4.605686 -0.188665 5.509846
 H -2.721688 -7.305690 6.364687
 H -1.260815 -6.781193 6.260228
 H 1.478254 -2.136182 3.376436
 H 2.514226 -3.070737 2.972628
 H 1.293924 -5.531360 2.545790
 H 1.315468 -5.193643 1.009422
 H -2.522055 -5.336029 5.478509
 H -2.342218 -4.401879 4.238670
 H -3.768916 -7.796803 -0.418385
 H -3.856289 -6.279928 -0.328783
 H -3.240158 -2.998184 -3.813445
 H -2.468157 -3.640475 -4.962934
 H 2.884067 -4.197357 -1.770382
 H 1.660183 -4.585023 -0.797759
 H -1.433548 3.294217 -2.862046
 H -0.916723 3.498880 -1.209078
 H -2.129127 -2.224799 0.340321
 H -0.899069 -2.076378 1.253310
 H -0.019681 -4.023786 3.790579
 H -1.127077 -4.550016 2.730065
 H 2.789919 -4.459108 -3.699317
 H 3.358025 -2.884651 -3.628472
 H 5.719521 4.979224 1.050073
 H 5.972846 3.394473 1.115621
 H 5.307183 -3.126556 4.828394
 H 5.001478 -4.510398 5.471636
 H -1.180481 -1.155278 -3.399418
 H -2.184338 -0.345595 -4.304588
 H -0.471219 2.924219 -4.858455
 H -1.846810 2.392604 -5.134104
 H 5.843103 1.577211 -0.340942
 H 4.383230 1.920940 0.224924
 H 3.906258 1.450520 -2.782376
 H 3.183608 2.298007 -3.985705
 H -5.400355 4.036803 -7.195952
 H -4.534613 2.978197 -6.378990
 H 4.148040 -5.601149 1.348184
 H 4.159520 -5.428946 -0.149636
 H 0.481951 -0.438117 -6.489223
 H 1.552635 0.454010 -6.006418
 H -3.221345 0.291045 -5.986956
 H -3.784152 0.906642 -4.681826
 H -0.083291 -0.117267 1.923413
 H 0.823826 -0.664204 0.921045
 H 6.181820 -2.037135 -4.255329
 H 5.504138 -3.107658 -3.261073
 H 4.281267 0.002173 -0.906706
 H 4.425334 -1.447123 -0.449314
 H -1.195370 5.800999 3.003561
 H -1.272895 4.330725 3.485684
 H -3.849636 -0.293868 -2.853723
 H -5.229435 -0.999440 -2.895521
 H -0.354745 -5.458906 -0.095920
 H -0.566881 -3.920698 0.123784
 H 5.328790 3.316468 -9.137809
 H 6.138018 2.154124 -8.252425
 H 2.742528 5.569041 4.350758
 H 3.214557 5.877392 5.666018
 H -5.829356 5.626898 -3.376679
 H -6.306338 6.594389 -2.036963
 H -0.029429 1.420258 -2.387338
 H 1.295292 0.770619 -3.044449
 H -4.466697 -3.612259 -0.862054
 H -5.127793 -4.633605 0.125014
 H -3.163988 6.636336 1.637658
 H -3.577072 6.550175 3.083348
 H -3.232762 3.078124 4.503471
 H -2.125671 3.014015 5.581227
 H -2.473139 0.311083 -0.514597
 H -3.572592 -0.576463 -0.025041
 H -1.391233 -1.130772 3.807086
 H -1.886645 -1.743900 5.181182
 H 1.818623 2.302135 4.368370
 H 1.997949 2.340170 6.066968
 H -6.134231 1.394590 2.238034
 H -5.580790 1.672029 0.910040
 H 3.251915 5.875118 -1.302266
 H 4.192214 5.127474 -2.256777
 H 0.311739 -5.842967 -3.819933
 H 0.809769 -6.456487 -2.500273
 H -4.522628 4.586943 -4.953769
 H -4.514990 4.021308 -3.333848
 H 5.431782 0.854422 7.660637
 H 6.123552 1.970338 6.815591
 H -1.345492 1.707302 1.362362
 H -0.853443 2.363614 2.588673
 H 0.687183 -2.246760 -2.208355
 H 0.472154 -1.329737 -3.452747
 H 0.122473 -3.258847 -5.000860
 H -0.474032 -3.637877 -6.321601
 H 7.150663 -5.606651 4.976436
 H 5.893595 -5.396124 4.050165
 H 4.182085 -3.482973 1.816133
 H 2.989545 -3.484370 0.996337
 H 5.362573 -1.412634 2.367407
 H 5.441540 -0.688362 3.741113
 H 2.519079 4.024429 -4.612404
 H 1.146283 4.531699 -4.005603
 H 0.988893 -8.738913 0.254875
 H -0.386004 -8.184299 1.067195
 H -4.136871 -2.840192 -6.624329
 H -4.680458 -1.794838 -7.626333
 H -4.010528 1.701398 -0.322245
 H -4.935619 1.427206 -1.558331
 H 5.161970 4.164410 -5.010997
 H 3.850888 4.192470 -5.904669
 H 2.357418 -0.802908 -0.850487
 H 1.053736 -0.439194 -1.476015
 H -4.448681 -3.835822 2.097894
 H -5.480979 -4.803646 2.424115
 H 2.675946 2.894047 1.873787
 H 1.774500 1.705307 1.334522
K_POINTS
 1
0.0 0.0 0.0 1.0