
&control
    calculation='scf'
    pseudo_dir = './',
    outdir='./outputs',
    disk_io='high'
/
&system
    ibrav= 1, celldm(1)=20.000000, nat=  192, ntyp= 2,
    ecutwfc = 30.0, nosym=.true., occupations='smearing',
    smearing='m-v', degauss=0.025
/
&electrons
    conv_thr =  1.0d-8,
    mixing_beta = 0.7
/
&ions
    pot_extrapolation='second-order'
    wfc_extrapolation='second-order'
    ion_temperature = 'andersen'
    tempw = 1000

/
ATOMIC_SPECIES
 H  1.01  H.blyp-hgh.UPF
 O  16.0  O.blyp-hgh.UPF
ATOMIC_POSITIONS bohr
 O -6.068297 -1.865060 0.090543
 O 3.731247 -1.416956 6.003751
 O -5.664408 7.343783 -5.440010
 O 2.298368 3.198661 -0.526645
 O -4.558702 1.024719 4.471364
 O 0.464327 5.626149 6.124691
 O -2.547663 -5.726133 -2.555170
 O 4.594647 0.444007 4.741409
 O -2.176486 -6.536012 6.584776
 O 1.781229 -3.010781 3.660817
 O 1.876608 -5.468017 1.757166
 O -2.601866 -4.383388 5.155240
 O -3.347247 -7.045523 0.045250
 O -3.356340 -3.643928 -4.547803
 O 2.689463 -4.407240 -0.826803
 O -1.230604 2.934845 -1.981203
 O -1.530935 -2.787947 0.864783
 O -0.313423 -4.755090 3.225522
 O 3.542697 -3.843133 -3.585388
 O 5.538802 4.131472 1.533071
 O 4.705532 -3.901178 4.742511
 O -2.121342 -0.904564 -3.496065
 O -1.423110 3.202698 -4.754340
 O 5.077046 1.225849 0.168965
 O 3.629050 1.498295 -3.708346
 O -4.690182 3.945860 -6.507357
 O 4.766801 -5.394512 0.619526
 O 1.244717 -0.466729 -5.871625
 O -2.989933 0.936713 -5.265387
 O 0.369416 -0.992499 1.789179
 O 6.203487 -2.410874 -3.368404
 O 3.995439 -0.932875 -1.140709
 O -0.868348 4.900773 2.749625
 O -4.768211 -0.210915 -2.519770
 O 0.027799 -4.600692 -0.329810
 O 5.643936 3.010056 -8.263575
 O 3.510157 5.348339 4.891550
 O -6.519386 6.213220 -2.916477
 O 0.456003 0.556182 -2.589748
 O -4.759826 -4.548094 -0.809470
 O -2.963437 7.069282 2.504153
 O -2.259898 3.201513 4.628369
 O -3.048752 0.193773 0.279231
 O -1.555670 -0.927044 4.742440
 O 1.537413 2.039616 5.272541
 O -5.393137 1.889573 1.847649
 O 3.390779 4.986138 -1.695407
 O 1.063167 -5.809267 -3.180507
 O -4.727354 4.744515 -3.958445
 O 6.107838 1.588563 7.730525
 O -0.595597 1.637251 1.973882
 O 0.573556 -2.264669 -3.172187
 O -0.210661 -4.055784 -5.461626
 O 6.809151 -5.789181 4.069454
 O 3.487462 -2.825933 1.530395
 O 6.002097 -1.023275 3.006896
 O 1.562142 3.805037 -4.517068
 O 0.102518 -8.334103 0.204818
 O -4.693493 -2.017231 -6.665513
 O -4.639445 2.142708 -0.949997
 O 4.195860 4.247412 -4.975289
 O 1.390300 -0.882511 -0.649832
 O -5.332041 -4.093975 1.754135
 O 1.877414 2.352602 2.065440
 H -6.045460 -1.872653 -0.893293
 H -5.971103 -2.812459 0.287388
 H 2.758548 -1.241537 6.086401
 H 3.761841 -2.204017 5.389577
 H -5.991964 6.884323 -4.619215
 H -5.214728 8.165779 -5.098486
 H 2.869459 4.001792 -0.430995
 H 2.363577 3.059635 -1.495229
 H -4.881289 0.163190 4.839980
 H -4.759835 0.855663 3.510775
 H 0.471416 6.611544 6.095005
 H 1.302655 5.230381 6.447068
 H -3.113748 -6.050168 -3.293480
 H -3.192231 -5.459050 -1.860720
 H 4.805016 1.389510 4.851711
 H 4.609817 -0.194732 5.521167
 H -2.728844 -7.303833 6.377637
 H -1.269423 -6.771470 6.254331
 H 1.475780 -2.119351 3.381008
 H 2.492398 -3.096954 2.965119
 H 1.304499 -5.518255 2.542073
 H 1.312831 -5.201370 0.997931
 H -2.508528 -5.338142 5.461343
 H -2.332037 -4.402123 4.233360
 H -3.767333 -7.801754 -0.424913
 H -3.840264 -6.278741 -0.334265
 H -3.258505 -2.995334 -3.806206
 H -2.469318 -3.621869 -4.976382
 H 2.887673 -4.203179 -1.768808
 H 1.678940 -4.626938 -0.758115
 H -1.415719 3.286872 -2.868035
 H -0.918553 3.489478 -1.218424
 H -2.128846 -2.210713 0.340359
 H -0.900912 -2.078830 1.250021
 H -0.017441 -4.040640 3.795495
 H -1.137658 -4.546687 2.732464
 H 2.754577 -4.456179 -3.657912
 H 3.325061 -2.886945 -3.622029
 H 5.731124 4.960154 1.022521
 H 5.976184 3.387289 1.113154
 H 5.306234 -3.126986 4.827725
 H 4.992507 -4.471877 5.512111
 H -1.174693 -1.142425 -3.397013
 H -2.166788 -0.365294 -4.321396
 H -0.482949 2.904016 -4.873064
 H -1.861403 2.387615 -5.117625
 H 5.857543 1.569547 -0.338943
 H 4.388805 1.931558 0.190081
 H 3.901528 1.445535 -2.783247
 H 3.204174 2.307560 -3.987275
 H -5.388384 4.055238 -7.218314
 H -4.529972 2.985961 -6.372240
 H 4.154625 -5.606332 1.359329
 H 4.137901 -5.442660 -0.139039
 H 0.490731 -0.436636 -6.479157
 H 1.568841 0.449069 -6.013889
 H -3.219849 0.319123 -6.000080
 H -3.796834 0.914057 -4.689177
 H -0.067483 -0.111051 1.921140
 H 0.826698 -0.678221 0.926698
 H 6.195163 -2.046926 -4.258701
 H 5.500399 -3.095869 -3.273585
 H 4.283610 -0.014290 -0.903433
 H 4.405590 -1.469173 -0.441449
 H -1.212509 5.797466 3.002011
 H -1.275295 4.354683 3.481679
 H -3.848419 -0.289107 -2.854122
 H -5.228528 -1.002165 -2.889700
 H -0.365961 -5.463932 -0.086795
 H -0.567137 -3.915894 0.122043
 H 5.328376 3.338749 -9.135852
 H 6.132496 2.158240 -8.279990
 H 2.735535 5.561777 4.327575
 H 3.197971 5.886642 5.640722
 H -5.868545 5.601194 -3.360972
 H -6.296362 6.603219 -2.040201
 H -0.035219 1.412654 -2.384302
 H 1.295957 0.775577 -3.052835
 H -4.472529 -3.625114 -0.917559
 H -5.136069 -4.633956 0.118618
 H -3.165910 6.651954 1.639865
 H -3.569868 6.551325 3.077706
 H -3.222309 3.086973 4.510732
 H -2.112235 3.011223 5.591533
 H -2.471476 0.315803 -0.501896
 H -3.575574 -0.558290 -0.049090
 H -1.388090 -1.138326 3.802275
 H -1.843892 -1.745358 5.190761
 H 1.852538 2.281427 4.360554
 H 2.018575 2.344121 6.061648
 H -6.153221 1.393693 2.241128
 H -5.603513 1.683617 0.914899
 H 3.291282 5.867138 -1.284220
 H 4.175696 5.104816 -2.277559
 H 0.310881 -5.851333 -3.813659
 H 0.816090 -6.459470 -2.496828
 H -4.502018 4.596593 -4.946306
 H -4.544325 4.028550 -3.321695
 H 5.447722 0.860048 7.676267
 H 6.108674 1.963786 6.823560
 H -1.329875 1.694075 1.354527
 H -0.862611 2.375044 2.583083
 H 0.699698 -2.248734 -2.209474
 H 0.497471 -1.327776 -3.450460
 H 0.113189 -3.248822 -5.003880
 H -0.512807 -3.652064 -6.307794
 H 7.156367 -5.582384 4.972831
 H 5.888307 -5.414719 4.027095
 H 4.200425 -3.460319 1.813969
 H 2.984300 -3.486025 0.993055
 H 5.345920 -1.395307 2.387502
 H 5.460942 -0.677288 3.765346
 H 2.511339 4.024394 -4.598832
 H 1.127718 4.535103 -4.019326
 H 1.015478 -8.708784 0.248340
 H -0.377495 -8.200386 1.061120
 H -4.112597 -2.838068 -6.645134
 H -4.687131 -1.777946 -7.617401
 H -4.018889 1.699812 -0.327572
 H -4.930140 1.443092 -1.572889
 H 5.159821 4.152787 -5.018809
 H 3.864712 4.218475 -5.905206
 H 2.361092 -0.815704 -0.858633
 H 1.058830 -0.460726 -1.483124
 H -4.448632 -3.821758 2.081720
 H -5.470379 -4.802291 2.419443
 H 2.700506 2.864650 1.869236
 H 1.761341 1.680590 1.368499
K_POINTS
 1
0.0 0.0 0.0 1.0