
&control
    calculation='scf'
    pseudo_dir = './',
    outdir='./outputs',
    disk_io='high'
/
&system
    ibrav= 1, celldm(1)=20.000000, nat=  192, ntyp= 2,
    ecutwfc = 30.0, nosym=.true., occupations='smearing',
    smearing='m-v', degauss=0.025
/
&electrons
    conv_thr =  1.0d-8,
    mixing_beta = 0.7
/
&ions
    pot_extrapolation='second-order'
    wfc_extrapolation='second-order'
    ion_temperature = 'andersen'
    tempw = 1000

/
ATOMIC_SPECIES
 H  1.01  H.blyp-hgh.UPF
 O  16.0  O.blyp-hgh.UPF
ATOMIC_POSITIONS bohr
 O -6.073642 -1.865637 0.090904
 O 3.726085 -1.411573 6.003828
 O -5.662024 7.349140 -5.439206
 O 2.319731 3.203614 -0.523814
 O -4.546376 1.008134 4.474564
 O 0.477414 5.620752 6.115630
 O -2.569970 -5.731705 -2.550082
 O 4.604289 0.424712 4.742389
 O -2.177868 -6.526030 6.600135
 O 1.781857 -3.010896 3.668514
 O 1.875086 -5.466259 1.742106
 O -2.604935 -4.386039 5.145380
 O -3.332692 -7.054862 0.040121
 O -3.349495 -3.633634 -4.549880
 O 2.698599 -4.390926 -0.821351
 O -1.229860 2.930237 -1.995425
 O -1.531301 -2.779306 0.855956
 O -0.321954 -4.747221 3.216386
 O 3.521723 -3.842744 -3.574218
 O 5.545104 4.131962 1.522212
 O 4.695935 -3.898975 4.751884
 O -2.118122 -0.898953 -3.492920
 O -1.425002 3.190679 -4.754027
 O 5.076595 1.232034 0.156726
 O 3.623070 1.489364 -3.708070
 O -4.682999 3.949770 -6.521413
 O 4.759176 -5.399319 0.616532
 O 1.254978 -0.468173 -5.859684
 O -2.999120 0.949827 -5.261462
 O 0.353728 -1.001284 1.791993
 O 6.210748 -2.410002 -3.368170
 O 3.992218 -0.948341 -1.141688
 O -0.882499 4.910052 2.750354
 O -4.762402 -0.215074 -2.511273
 O 0.022146 -4.609291 -0.311844
 O 5.632430 3.008670 -8.271053
 O 3.487942 5.345564 4.871417
 O -6.527625 6.221248 -2.923238
 O 0.465709 0.551885 -2.601058
 O -4.762545 -4.560392 -0.809378
 O -2.961397 7.086798 2.513105
 O -2.250405 3.204978 4.648091
 O -3.054973 0.202089 0.293627
 O -1.555991 -0.919214 4.729749
 O 1.551266 2.042336 5.272045
 O -5.396063 1.863127 1.854030
 O 3.393125 4.978101 -1.694752
 O 1.054925 -5.812122 -3.172953
 O -4.746166 4.744897 -3.966562
 O 6.125847 1.591307 7.744643
 O -0.594123 1.641204 1.968456
 O 0.577934 -2.267295 -3.165652
 O -0.203673 -4.060154 -5.455038
 O 6.813123 -5.790010 4.068433
 O 3.478058 -2.828794 1.535342
 O 6.006288 -1.007765 3.016942
 O 1.558699 3.794329 -4.513742
 O 0.119548 -8.341640 0.190671
 O -4.697088 -2.038580 -6.662562
 O -4.640261 2.165357 -0.959686
 O 4.197207 4.247628 -4.966888
 O 1.387777 -0.886228 -0.643494
 O -5.337146 -4.087669 1.753629
 O 1.889231 2.358511 2.073166
 H -6.101126 -1.869952 -0.891668
 H -5.960201 -2.819562 0.287695
 H 2.751686 -1.222639 6.091741
 H 3.761307 -2.212520 5.405986
 H -6.014255 6.949286 -4.587817
 H -5.242566 8.185056 -5.092293
 H 2.857312 4.027792 -0.446197
 H 2.370115 3.042042 -1.493691
 H -4.866256 0.150788 4.828317
 H -4.788665 0.876199 3.527307
 H 0.467951 6.604501 6.068600
 H 1.309528 5.209275 6.419236
 H -3.088617 -6.057468 -3.319686
 H -3.212384 -5.409072 -1.882074
 H 4.847687 1.367858 4.791583
 H 4.609508 -0.198089 5.536954
 H -2.739460 -7.302983 6.395973
 H -1.283547 -6.759736 6.249510
 H 1.470013 -2.095674 3.389383
 H 2.458324 -3.138776 2.954999
 H 1.315487 -5.496012 2.534583
 H 1.306574 -5.212983 0.985484
 H -2.488067 -5.338661 5.441324
 H -2.316068 -4.402726 4.220808
 H -3.761654 -7.808489 -0.431933
 H -3.813909 -6.278538 -0.342300
 H -3.285612 -2.994517 -3.800061
 H -2.473411 -3.597255 -4.994584
 H 2.892516 -4.210127 -1.766028
 H 1.717421 -4.683649 -0.702092
 H -1.388549 3.282712 -2.877346
 H -0.919231 3.480103 -1.235902
 H -2.127040 -2.193226 0.341319
 H -0.902107 -2.086301 1.244094
 H -0.010431 -4.058308 3.801757
 H -1.150624 -4.539058 2.737862
 H 2.705257 -4.442378 -3.597284
 H 3.269102 -2.895339 -3.613923
 H 5.746203 4.927573 0.983861
 H 5.987385 3.374522 1.108733
 H 5.306124 -3.130503 4.825017
 H 4.977285 -4.408864 5.569922
 H -1.169196 -1.124317 -3.390982
 H -2.140489 -0.393768 -4.344254
 H -0.502399 2.879701 -4.893974
 H -1.886299 2.381215 -5.087301
 H 5.874495 1.559285 -0.338123
 H 4.399686 1.947484 0.136694
 H 3.893324 1.443562 -2.783469
 H 3.234985 2.329880 -3.984818
 H -5.368010 4.079435 -7.248753
 H -4.525633 2.999367 -6.364998
 H 4.164263 -5.614342 1.374983
 H 4.105787 -5.457779 -0.120826
 H 0.499479 -0.437434 -6.467787
 H 1.594352 0.441388 -6.026878
 H -3.216051 0.364442 -6.020502
 H -3.814058 0.926605 -4.702438
 H -0.045807 -0.102016 1.925216
 H 0.831463 -0.711087 0.937025
 H 6.211907 -2.063712 -4.269775
 H 5.495595 -3.076201 -3.295507
 H 4.288926 -0.042569 -0.896245
 H 4.376860 -1.504283 -0.426285
 H -1.234177 5.788838 2.995789
 H -1.276744 4.390852 3.472600
 H -3.844947 -0.283768 -2.852974
 H -5.228686 -1.005509 -2.878440
 H -0.383313 -5.471465 -0.075831
 H -0.564899 -3.909408 0.117074
 H 5.332605 3.370783 -9.134333
 H 6.126639 2.168303 -8.327357
 H 2.726862 5.546490 4.287626
 H 3.177908 5.903100 5.606735
 H -5.920877 5.561975 -3.330300
 H -6.275384 6.613335 -2.051530
 H -0.042736 1.399546 -2.380139
 H 1.294497 0.785674 -3.065207
 H -4.481275 -3.645374 -1.000053
 H -5.146256 -4.630116 0.108543
 H -3.165434 6.673931 1.641348
 H -3.558925 6.554992 3.071229
 H -3.205308 3.100170 4.520681
 H -2.090879 3.009431 5.600120
 H -2.466400 0.325256 -0.482185
 H -3.585782 -0.531071 -0.082530
 H -1.383790 -1.150357 3.796945
 H -1.780116 -1.748127 5.201705
 H 1.906058 2.250149 4.357343
 H 2.052668 2.356062 6.045621
 H -6.178861 1.392665 2.244955
 H -5.630810 1.700219 0.923774
 H 3.347784 5.857134 -1.259152
 H 4.152530 5.072642 -2.309117
 H 0.309574 -5.860077 -3.802520
 H 0.825544 -6.462081 -2.489224
 H -4.475164 4.606564 -4.924124
 H -4.585570 4.037410 -3.309696
 H 5.471916 0.872351 7.701510
 H 6.085505 1.952710 6.837871
 H -1.310464 1.672201 1.337241
 H -0.870828 2.386249 2.574274
 H 0.719243 -2.251416 -2.207155
 H 0.540286 -1.325337 -3.445394
 H 0.101814 -3.237418 -5.003531
 H -0.572260 -3.678461 -6.286014
 H 7.160977 -5.544644 4.965989
 H 5.885487 -5.443916 3.996131
 H 4.226509 -3.420216 1.809313
 H 2.975087 -3.484173 0.985401
 H 5.322316 -1.368893 2.416770
 H 5.488725 -0.656974 3.798128
 H 2.502196 4.027969 -4.573742
 H 1.104233 4.539117 -4.040679
 H 1.050122 -8.664671 0.241273
 H -0.357763 -8.224539 1.051051
 H -4.079713 -2.829519 -6.674487
 H -4.698811 -1.754988 -7.603595
 H -4.030990 1.695234 -0.337228
 H -4.918275 1.464302 -1.596790
 H 5.158439 4.134367 -5.029947
 H 3.891050 4.258556 -5.906902
 H 2.370654 -0.839796 -0.865735
 H 1.060304 -0.488440 -1.488851
 H -4.447836 -3.798672 2.054755
 H -5.458483 -4.802511 2.413770
 H 2.732424 2.815518 1.861425
 H 1.742814 1.646186 1.419980
K_POINTS
 1
0.0 0.0 0.0 1.0