
&control
    calculation='scf'
    pseudo_dir = './',
    outdir='./outputs',
    disk_io='high'
/
&system
    ibrav= 1, celldm(1)=20.000000, nat=  192, ntyp= 2,
    ecutwfc = 30.0, nosym=.true., occupations='smearing',
    smearing='m-v', degauss=0.025
/
&electrons
    conv_thr =  1.0d-8,
    mixing_beta = 0.7
/
&ions
    pot_extrapolation='second-order'
    wfc_extrapolation='second-order'
    ion_temperature = 'andersen'
    tempw = 1000

/
ATOMIC_SPECIES
 H  1.01  H.blyp-hgh.UPF
 O  16.0  O.blyp-hgh.UPF
ATOMIC_POSITIONS bohr
 O -6.089957 -1.872393 0.085971
 O 3.705902 -1.405776 6.009584
 O -5.660322 7.373688 -5.426176
 O 2.407131 3.206097 -0.510998
 O -4.505622 0.947087 4.485172
 O 0.515587 5.602979 6.075103
 O -2.647450 -5.754329 -2.531023
 O 4.644153 0.357488 4.737951
 O -2.189224 -6.491883 6.650763
 O 1.778045 -2.994749 3.698390
 O 1.883399 -5.465329 1.686493
 O -2.615852 -4.390676 5.105226
 O -3.286928 -7.086990 0.021748
 O -3.328376 -3.592119 -4.557083
 O 2.727060 -4.341133 -0.795979
 O -1.226063 2.893666 -2.039825
 O -1.534574 -2.742904 0.824660
 O -0.355064 -4.730189 3.183462
 O 3.437196 -3.846614 -3.529759
 O 5.563355 4.132650 1.480726
 O 4.667555 -3.892206 4.798781
 O -2.105927 -0.878667 -3.486826
 O -1.431288 3.140320 -4.758619
 O 5.071111 1.257023 0.104751
 O 3.592331 1.448912 -3.712411
 O -4.658506 3.971112 -6.574510
 O 4.731442 -5.425579 0.610998
 O 1.290409 -0.469338 -5.815352
 O -3.036652 0.995865 -5.248687
 O 0.294994 -1.021343 1.797812
 O 6.240437 -2.405829 -3.368061
 O 3.979879 -1.009223 -1.146045
 O -0.932641 4.942157 2.749214
 O -4.738727 -0.228661 -2.480546
 O 0.002810 -4.647553 -0.243796
 O 5.585919 3.006228 -8.287794
 O 3.399888 5.339262 4.800347
 O -6.574305 6.257505 -2.943259
 O 0.496780 0.542023 -2.646400
 O -4.771110 -4.611219 -0.819144
 O -2.957357 7.146964 2.538291
 O -2.208025 3.219118 4.715068
 O -3.075073 0.226923 0.334593
 O -1.556370 -0.893076 4.689667
 O 1.598697 2.048428 5.266750
 O -5.411697 1.762401 1.886049
 O 3.408567 4.962321 -1.696885
 O 1.028830 -5.826147 -3.149491
 O -4.818180 4.749764 -3.986655
 O 6.201554 1.603464 7.790242
 O -0.593797 1.658926 1.954762
 O 0.592008 -2.274741 -3.149995
 O -0.180252 -4.065973 -5.436991
 O 6.831095 -5.795630 4.062785
 O 3.447608 -2.844508 1.554424
 O 6.021903 -0.953670 3.057080
 O 1.541262 3.755104 -4.500151
 O 0.165770 -8.360712 0.134504
 O -4.706567 -2.117724 -6.657503
 O -4.650382 2.245619 -0.993990
 O 4.199344 4.248393 -4.944477
 O 1.387411 -0.903100 -0.625627
 O -5.352204 -4.063546 1.753534
 O 1.937351 2.380746 2.109850
 H -6.305885 -1.844484 -0.871111
 H -5.939037 -2.814158 0.323284
 H 2.744854 -1.152023 6.110929
 H 3.739950 -2.221836 5.493828
 H -6.086813 7.185858 -4.534573
 H -5.308709 8.219220 -5.112175
 H 2.828298 4.093048 -0.538930
 H 2.368640 2.996926 -1.451440
 H -4.815589 0.099652 4.818235
 H -4.846025 0.965751 3.560049
 H 0.525672 6.568657 6.007249
 H 1.330858 5.155528 6.327909
 H -3.003325 -6.051298 -3.386614
 H -3.292483 -5.240191 -2.012017
 H 4.980343 1.274366 4.631983
 H 4.551274 -0.160480 5.587125
 H -2.746365 -7.272732 6.459722
 H -1.320711 -6.754699 6.268572
 H 1.471047 -2.107710 3.442683
 H 2.331650 -3.291329 2.919999
 H 1.307418 -5.393782 2.485861
 H 1.240969 -5.247515 0.975927
 H -2.424715 -5.318958 5.435381
 H -2.270046 -4.400287 4.183472
 H -3.710007 -7.826197 -0.434974
 H -3.694494 -6.298872 -0.376624
 H -3.352539 -2.998532 -3.807728
 H -2.491465 -3.525552 -5.029566
 H 2.889659 -4.223590 -1.758306
 H 1.916235 -4.814676 -0.571682
 H -1.289880 3.334852 -2.933628
 H -0.893539 3.494251 -1.322406
 H -2.121784 -2.149913 0.342793
 H -0.871245 -2.116760 1.231158
 H 0.040597 -4.050825 3.801139
 H -1.189458 -4.472837 2.761787
 H 2.590708 -4.325820 -3.406395
 H 3.031120 -2.954008 -3.594936
 H 5.785208 4.834561 0.844518
 H 6.050947 3.353099 1.124500
 H 5.316211 -3.154495 4.774125
 H 4.895123 -4.162246 5.730364
 H -1.163808 -1.079395 -3.328948
 H -2.067610 -0.488107 -4.386381
 H -0.536640 2.828095 -4.969575
 H -2.012802 2.350809 -4.932121
 H 5.894455 1.526670 -0.366929
 H 4.451323 2.007618 -0.064347
 H 3.862114 1.477080 -2.771333
 H 3.380880 2.407770 -3.924230
 H -5.265573 4.118568 -7.316156
 H -4.541713 3.028493 -6.375839
 H 4.211889 -5.639424 1.412873
 H 3.995050 -5.444110 -0.039769
 H 0.514194 -0.469416 -6.440934
 H 1.687170 0.405072 -6.085448
 H -3.195319 0.552067 -6.111394
 H -3.880771 0.979118 -4.761337
 H 0.012783 -0.083406 1.999651
 H 0.850898 -0.925155 0.973557
 H 6.260031 -2.144398 -4.326873
 H 5.462116 -3.008113 -3.379637
 H 4.335415 -0.142558 -0.838414
 H 4.252112 -1.609187 -0.389590
 H -1.297798 5.816868 2.941558
 H -1.303290 4.436237 3.504703
 H -3.820271 -0.287157 -2.836914
 H -5.237529 -1.006960 -2.815580
 H -0.459120 -5.485201 -0.059386
 H -0.550522 -3.892478 0.091105
 H 5.389144 3.477206 -9.141606
 H 6.146065 2.241047 -8.546209
 H 2.708584 5.451543 4.108085
 H 3.142337 5.985686 5.496609
 H -6.044441 5.428683 -3.190153
 H -6.154387 6.620853 -2.143482
 H -0.049005 1.331309 -2.377422
 H 1.290164 0.858766 -3.120721
 H -4.539719 -3.755579 -1.257200
 H -5.167758 -4.553668 0.095544
 H -3.121927 6.753793 1.648880
 H -3.536816 6.575243 3.089588
 H -3.162174 3.141763 4.559587
 H -2.003157 3.012948 5.629037
 H -2.423193 0.388147 -0.387709
 H -3.666591 -0.411287 -0.156041
 H -1.366264 -1.196662 3.780567
 H -1.549569 -1.738724 5.200127
 H 2.100173 2.127092 4.429149
 H 2.199190 2.444765 5.926682
 H -6.236624 1.382775 2.242976
 H -5.667140 1.742414 0.948047
 H 3.540677 5.808837 -1.213260
 H 4.083514 4.983289 -2.421415
 H 0.273065 -5.856879 -3.765366
 H 0.851546 -6.463838 -2.431014
 H -4.396519 4.585243 -4.831290
 H -4.692275 4.049265 -3.336858
 H 5.522051 0.900627 7.829670
 H 6.005982 1.924790 6.887594
 H -1.276845 1.585401 1.236633
 H -0.860714 2.373556 2.532498
 H 0.793693 -2.264687 -2.171824
 H 0.734146 -1.335783 -3.411524
 H 0.078227 -3.243152 -4.974302
 H -0.790858 -3.821093 -6.183979
 H 7.124132 -5.400367 4.914768
 H 5.902049 -5.549923 3.936903
 H 4.303581 -3.249874 1.770891
 H 2.962942 -3.443624 0.948252
 H 5.262035 -1.262136 2.524979
 H 5.574450 -0.556484 3.867654
 H 2.488100 4.068496 -4.449728
 H 1.062950 4.522462 -4.135239
 H 1.125165 -8.532323 0.237091
 H -0.231537 -8.301700 1.013583
 H -3.987417 -2.771961 -6.761671
 H -4.757166 -1.703839 -7.544704
 H -4.079215 1.684101 -0.394674
 H -4.842558 1.549199 -1.685864
 H 5.165969 4.061496 -5.041390
 H 4.008238 4.413232 -5.908110
 H 2.387197 -0.965153 -0.833252
 H 1.010661 -0.532971 -1.461397
 H -4.456240 -3.707810 1.939920
 H -5.440145 -4.811181 2.406356
 H 2.836538 2.606732 1.813085
 H 1.691679 1.564050 1.622057
K_POINTS
 1
0.0 0.0 0.0 1.0