
&control
    calculation='scf'
    pseudo_dir = './',
    outdir='./outputs',
    disk_io='high'
/
&system
    ibrav= 1, celldm(1)=20.000000, nat=  192, ntyp= 2,
    ecutwfc = 30.0, nosym=.true., occupations='smearing',
    smearing='m-v', degauss=0.025
/
&electrons
    conv_thr =  1.0d-8,
    mixing_beta = 0.7
/
&ions
    pot_extrapolation='second-order'
    wfc_extrapolation='second-order'
    ion_temperature = 'andersen'
    tempw = 1000

/
ATOMIC_SPECIES
 H  1.01  H.blyp-hgh.UPF
 O  16.0  O.blyp-hgh.UPF
ATOMIC_POSITIONS bohr
 O -6.121414 -1.859543 0.034721
 O 3.610905 -1.496300 6.198084
 O -5.762376 7.554550 -5.374947
 O 2.858025 3.000049 -0.455564
 O -4.347886 0.784213 4.570698
 O 0.597093 5.569803 5.870678
 O -2.954073 -5.814545 -2.530640
 O 4.787610 0.294129 4.706687
 O -2.205566 -6.383476 6.811974
 O 1.682177 -2.957890 3.871130
 O 1.863703 -5.469825 1.518106
 O -2.662969 -4.309053 5.025285
 O -3.127762 -7.174134 0.010703
 O -3.310333 -3.413875 -4.552146
 O 2.881931 -4.179925 -0.670834
 O -1.145814 2.741791 -2.189829
 O -1.554427 -2.614395 0.701318
 O -0.451572 -4.594157 3.128510
 O 2.927074 -3.821076 -3.288827
 O 5.604437 4.128988 1.281969
 O 4.577292 -3.821542 5.069849
 O -2.083467 -0.855799 -3.438091
 O -1.468069 2.957703 -4.832833
 O 5.003097 1.395970 -0.265738
 O 3.430272 1.385549 -3.652273
 O -4.530452 4.019580 -6.783139
 O 4.620226 -5.635292 0.609231
 O 1.388404 -0.390291 -5.701068
 O -3.258775 1.157917 -5.263949
 O 0.099394 -1.126844 1.906741
 O 6.331015 -2.415945 -3.459088
 O 3.977247 -1.294679 -1.099989
 O -1.147794 4.954288 2.744808
 O -4.579715 -0.227598 -2.322109
 O -0.103857 -4.886625 0.015272
 O 5.489715 3.036128 -8.478205
 O 3.047048 5.346388 4.548643
 O -6.808755 6.426082 -2.890458
 O 0.617831 0.596219 -2.850918
 O -4.821640 -4.832800 -0.950452
 O -2.981345 7.361437 2.549059
 O -1.922290 3.275264 4.888378
 O -3.167721 0.315909 0.426873
 O -1.497624 -0.885815 4.573596
 O 1.944048 2.033804 5.278636
 O -5.518030 1.388645 2.091223
 O 3.596253 5.144681 -1.822646
 O 0.944997 -5.932013 -3.100962
 O -5.072446 4.642143 -3.983364
 O 6.518852 1.625256 7.906017
 O -0.590199 1.629757 1.885395
 O 0.703090 -2.265659 -3.104239
 O -0.126139 -4.104344 -5.437206
 O 6.896708 -5.797043 4.017883
 O 3.382265 -2.831504 1.595166
 O 6.154550 -0.815004 3.159326
 O 1.495171 3.632249 -4.406770
 O 0.243485 -8.326218 -0.075399
 O -4.746479 -2.401333 -6.683397
 O -4.758707 2.477425 -1.139302
 O 4.268353 4.225796 -4.945792
 O 1.335778 -1.069096 -0.519092
 O -5.414638 -3.913513 1.711233
 O 2.274267 2.383002 2.342547
 H -6.856898 -2.065249 -0.572954
 H -6.156499 -2.662135 0.625877
 H 2.658729 -1.302229 6.431625
 H 3.582889 -2.208921 5.499059
 H -6.158517 7.478350 -4.462584
 H -5.006680 8.188263 -5.358330
 H 3.245740 3.767783 -1.017002
 H 2.062754 2.568007 -0.848919
 H -4.693308 -0.103186 4.674019
 H -4.380887 0.831063 3.593727
 H 0.999321 6.443719 6.058375
 H 1.285918 4.885523 5.866283
 H -2.525715 -6.049880 -3.400025
 H -3.371350 -4.945263 -2.637995
 H 4.954958 1.248407 4.884719
 H 4.175319 -0.164380 5.386631
 H -2.882881 -7.034349 6.490362
 H -1.315766 -6.795379 6.812150
 H 1.455253 -2.084026 3.405570
 H 2.144145 -3.397324 3.124789
 H 1.459851 -5.279961 2.373633
 H 1.123833 -5.446694 0.857970
 H -2.545836 -5.056219 5.664646
 H -2.043426 -4.646966 4.310596
 H -3.312265 -8.037068 -0.420816
 H -3.132883 -6.615834 -0.820374
 H -3.255540 -2.670936 -3.916240
 H -2.439223 -3.361736 -4.989775
 H 3.105119 -3.966607 -1.632310
 H 2.106778 -4.774415 -0.579156
 H -1.119129 3.131409 -3.071046
 H -0.692673 3.192450 -1.442171
 H -2.189360 -1.972337 0.331293
 H -1.001334 -1.960372 1.256067
 H 0.305344 -3.996272 3.281778
 H -1.034543 -4.073422 2.554380
 H 2.374330 -4.634228 -3.538902
 H 2.493587 -3.070653 -3.727898
 H 5.800812 4.780805 0.604273
 H 6.448273 3.625873 1.416898
 H 5.249257 -3.449896 4.462441
 H 4.919135 -3.481309 5.944196
 H -1.171856 -1.025659 -3.110637
 H -1.923049 -0.437708 -4.321133
 H -0.690217 2.456579 -5.124162
 H -1.973550 2.171357 -4.492522
 H 5.825646 1.373314 -0.795132
 H 4.395607 2.140755 -0.499741
 H 3.708931 1.109133 -2.772600
 H 3.959875 2.083496 -4.089825
 H -5.147477 4.437697 -7.456996
 H -4.812438 3.090378 -6.675181
 H 4.389910 -5.849837 1.531928
 H 4.124978 -4.812955 0.420967
 H 0.634312 -0.775944 -6.189965
 H 1.539980 0.503671 -6.113598
 H -3.137189 1.531964 -6.158639
 H -4.230275 1.063482 -5.158482
 H 0.111693 -0.134018 1.918060
 H 0.716424 -1.156465 1.088520
 H 6.625161 -2.506807 -4.393730
 H 5.383921 -2.587907 -3.391810
 H 4.348934 -0.529971 -0.597765
 H 3.627239 -1.930806 -0.413151
 H -1.284976 5.904681 2.787904
 H -1.373179 4.717666 3.643368
 H -3.763936 -0.607986 -2.716642
 H -5.251033 -0.936010 -2.477291
 H -0.836431 -5.485186 -0.247263
 H -0.520343 -3.973420 0.090767
 H 5.076398 3.911113 -8.588733
 H 6.300077 2.836244 -8.973085
 H 2.644683 4.999068 3.717161
 H 3.031403 6.293759 4.277914
 H -6.451457 5.644248 -3.355239
 H -6.007745 6.857312 -2.552306
 H -0.130616 1.218284 -2.581276
 H 1.230328 1.167517 -3.352487
 H -5.194549 -4.257427 -1.666958
 H -4.985110 -4.352690 -0.101498
 H -2.874332 6.737965 1.785106
 H -3.565119 6.827624 3.113307
 H -2.890810 3.403738 4.970140
 H -1.684504 3.242535 5.841877
 H -2.431427 0.491135 -0.198115
 H -3.831588 0.140686 -0.299521
 H -1.327804 -0.980792 3.623747
 H -0.869465 -1.496840 5.013470
 H 2.291468 1.681125 4.423610
 H 2.298619 2.917476 5.477855
 H -6.191240 0.671571 1.934370
 H -5.154856 1.566269 1.207170
 H 4.404768 5.550969 -1.409163
 H 3.793454 5.013748 -2.770014
 H 0.119457 -5.455122 -3.296280
 H 0.738054 -6.222729 -2.191219
 H -4.757721 4.653513 -4.900004
 H -4.758126 3.913209 -3.412240
 H 5.979889 1.282173 8.624003
 H 5.882826 1.839848 7.207484
 H -1.281333 1.640534 1.182125
 H -0.971752 2.327054 2.461059
 H 0.857196 -2.487207 -2.170212
 H 1.331172 -1.562559 -3.346911
 H -0.139127 -3.419657 -4.720258
 H -1.060765 -4.399150 -5.385192
 H 6.961474 -5.117821 4.736063
 H 5.985463 -6.147103 3.993887
 H 4.353614 -2.768586 1.572484
 H 3.092572 -3.350000 0.775424
 H 5.377381 -1.068614 2.622182
 H 5.712439 -0.414969 3.993515
 H 2.315142 4.016585 -4.063017
 H 0.835108 4.355481 -4.485165
 H 1.165180 -8.669435 -0.055721
 H -0.116841 -8.189077 0.828537
 H -3.842461 -2.676549 -6.963296
 H -5.211778 -2.121219 -7.509516
 H -4.011623 2.112347 -0.613484
 H -4.548160 2.107878 -2.029017
 H 5.216069 4.093059 -4.692087
 H 4.367243 4.896873 -5.647669
 H 2.264716 -1.055867 -0.892391
 H 1.176185 -0.200074 -0.976706
 H -4.542385 -3.499067 1.884743
 H -5.363341 -4.647394 2.363779
 H 2.787335 1.915222 1.667907
 H 1.376617 1.984192 2.476720
K_POINTS
 1
0.0 0.0 0.0 1.0