
&control
    calculation='scf'
    pseudo_dir = './',
    outdir='./outputs',
    disk_io='high'
/
&system
    ibrav= 1, celldm(1)=20.000000, nat=  192, ntyp= 2,
    ecutwfc = 30.0, nosym=.true., occupations='smearing',
    smearing='m-v', degauss=0.025
/
&electrons
    conv_thr =  1.0d-8,
    mixing_beta = 0.7
/
&ions
    pot_extrapolation='second-order'
    wfc_extrapolation='second-order'
    ion_temperature = 'andersen'
    tempw = 1000

/
ATOMIC_SPECIES
 H  1.01  H.blyp-hgh.UPF
 O  16.0  O.blyp-hgh.UPF
ATOMIC_POSITIONS bohr
 O -6.122902 -1.878673 0.036102
 O 3.583092 -1.649339 6.383175
 O -5.833607 7.700540 -5.387914
 O 3.164149 2.813866 -0.468904
 O -4.205583 0.722090 4.639904
 O 0.556667 5.559193 5.784738
 O -3.115082 -5.880738 -2.648816
 O 4.766215 0.437979 4.836415
 O -2.191152 -6.318489 6.994174
 O 1.576593 -2.936060 3.923379
 O 1.871961 -5.519347 1.509553
 O -2.694033 -4.236287 5.061767
 O -2.993653 -7.208420 -0.061109
 O -3.255617 -3.267147 -4.428548
 O 2.989222 -3.959851 -0.611686
 O -1.074928 2.557499 -2.193444
 O -1.614377 -2.528494 0.572164
 O -0.498968 -4.396490 3.114978
 O 2.582436 -3.896306 -3.194070
 O 5.663156 4.160672 1.146983
 O 4.537662 -3.739524 5.239715
 O -2.057612 -0.881334 -3.397066
 O -1.391522 2.808896 -4.852293
 O 4.957368 1.316950 -0.660538
 O 3.305328 1.312041 -3.601293
 O -4.452312 4.027929 -6.939578
 O 4.673279 -5.852964 0.643515
 O 1.360832 -0.276817 -5.627315
 O -3.408576 1.275297 -5.286250
 O 0.124371 -1.113525 2.029072
 O 6.399410 -2.429133 -3.506258
 O 3.921664 -1.501703 -1.040811
 O -1.310695 4.927900 2.731947
 O -4.441331 -0.211710 -2.156274
 O -0.293262 -5.077610 0.070738
 O 5.470634 3.093413 -8.497915
 O 2.817085 5.407984 4.240929
 O -6.915416 6.625976 -2.887203
 O 0.690369 0.727704 -2.950047
 O -4.904901 -4.902195 -1.134969
 O -3.043677 7.431822 2.418130
 O -1.696778 3.321404 4.987502
 O -3.242080 0.423655 0.361783
 O -1.387074 -0.907561 4.529400
 O 2.237385 1.975265 5.278964
 O -5.540897 1.225070 2.157391
 O 3.724178 5.259081 -1.907819
 O 0.771122 -6.029424 -3.044132
 O -5.325706 4.525335 -3.975370
 O 6.702055 1.673538 7.991503
 O -0.613619 1.617811 1.861848
 O 0.745828 -2.262102 -3.141050
 O -0.148317 -4.101653 -5.365318
 O 6.920242 -5.792979 3.975622
 O 3.356381 -2.728414 1.611721
 O 6.328802 -0.972189 3.135983
 O 1.391460 3.531114 -4.339512
 O 0.255736 -8.274833 -0.254016
 O -4.826248 -2.555797 -6.776557
 O -4.797951 2.657469 -1.292446
 O 4.430681 4.213652 -4.920680
 O 1.262901 -1.112894 -0.470824
 O -5.433926 -3.734382 1.683195
 O 2.516075 2.312967 2.622368
 H -6.938775 -2.118592 -0.457158
 H -6.022289 -2.421218 0.843681
 H 2.711900 -1.192035 6.608066
 H 3.330231 -2.190622 5.621004
 H -6.193864 7.549742 -4.471324
 H -4.903813 7.993848 -5.381743
 H 3.057673 3.419918 -1.242052
 H 2.437112 2.194879 -0.656048
 H -4.351396 -0.232182 4.857493
 H -4.169436 0.827379 3.666359
 H 1.173570 6.243110 6.085862
 H 1.243915 4.987673 5.384977
 H -2.329596 -6.105696 -3.178368
 H -3.063080 -4.919501 -2.880417
 H 4.433896 1.332995 5.054632
 H 4.212567 -0.177315 5.429507
 H -2.804162 -6.877444 6.506009
 H -1.356444 -6.801781 6.784011
 H 1.307053 -2.143794 3.469857
 H 2.544285 -2.966467 3.673432
 H 1.401223 -5.557364 2.373000
 H 1.068614 -5.590433 0.949102
 H -2.769871 -4.835960 5.827783
 H -1.834334 -4.339427 4.578039
 H -2.894381 -8.168574 -0.089739
 H -2.942391 -6.864813 -0.980287
 H -3.141218 -2.314069 -4.203916
 H -2.727330 -3.208773 -5.254429
 H 3.060038 -3.811564 -1.625691
 H 2.220165 -4.535405 -0.675798
 H -0.973133 3.056473 -3.056533
 H -0.558132 3.158499 -1.622259
 H -2.484940 -2.213524 0.268988
 H -1.234285 -1.933764 1.243512
 H 0.307221 -3.853905 3.392852
 H -0.828662 -4.068352 2.251963
 H 2.548482 -4.773204 -3.578894
 H 1.984361 -3.198535 -3.581972
 H 5.754597 4.994162 0.598151
 H 6.549288 3.865356 1.363665
 H 4.913966 -3.806556 4.346560
 H 5.210832 -3.593532 5.936616
 H -1.125985 -1.117878 -3.214423
 H -2.169434 -0.154519 -4.033081
 H -0.570624 2.289603 -4.988235
 H -2.234321 2.307573 -4.975315
 H 5.759481 1.824322 -0.918082
 H 4.350874 2.075750 -0.434139
 H 3.769071 0.992146 -2.778405
 H 4.016374 1.836643 -4.014553
 H -4.921625 4.774520 -7.316108
 H -5.107914 3.312971 -7.156731
 H 4.221150 -6.213045 1.421289
 H 4.263370 -4.981723 0.486223
 H 0.604164 -0.755169 -6.013353
 H 1.316698 0.636992 -6.014660
 H -3.292144 1.486246 -6.253741
 H -4.375844 1.114831 -5.232248
 H -0.343369 -0.244944 2.044254
 H 0.610307 -1.228186 1.185542
 H 6.711732 -2.727905 -4.391252
 H 5.443431 -2.184292 -3.621417
 H 4.214159 -0.637391 -0.651292
 H 3.605969 -2.065474 -0.289222
 H -0.868381 5.806763 2.714655
 H -1.250924 4.576180 3.659711
 H -3.649278 -0.572088 -2.628176
 H -5.125542 -0.908406 -2.241960
 H -1.046175 -5.510710 -0.372030
 H -0.677832 -4.170513 0.198018
 H 4.812580 3.827107 -8.577430
 H 5.685535 3.236842 -9.472064
 H 2.747074 4.553145 3.747215
 H 3.108419 6.026466 3.532968
 H -6.467865 6.092797 -3.616981
 H -6.203809 6.741724 -2.182862
 H -0.036816 1.380797 -2.788675
 H 1.348744 1.215619 -3.501199
 H -5.534016 -4.189823 -1.370245
 H -5.065991 -4.816130 -0.169329
 H -2.955787 6.661457 1.831139
 H -3.623003 7.191575 3.177041
 H -2.570594 3.770822 4.998056
 H -1.362572 3.468372 5.888900
 H -2.409988 0.344686 -0.139557
 H -3.961094 0.067775 -0.232004
 H -1.350262 -0.697263 3.573416
 H -0.753511 -1.641478 4.604704
 H 2.415571 1.742637 4.344544
 H 2.294394 2.949605 5.401926
 H -5.608985 0.232226 2.183949
 H -4.712056 1.341717 1.642691
 H 4.660954 5.558502 -1.863853
 H 3.682594 5.362388 -2.887750
 H 0.500124 -5.077804 -3.101237
 H 1.027830 -6.085596 -2.093187
 H -5.131032 4.397765 -4.936061
 H -4.647665 3.879082 -3.757629
 H 6.647052 1.307924 8.917424
 H 5.865074 1.456820 7.519547
 H -1.314349 1.776639 1.202757
 H -0.930549 2.100766 2.652478
 H 0.835228 -2.407658 -2.158677
 H 1.044243 -1.307131 -3.186436
 H 0.034065 -3.702451 -4.500664
 H -0.642611 -4.927870 -5.189174
 H 6.817670 -5.354909 4.841470
 H 6.181570 -6.425952 4.046333
 H 4.342333 -2.692561 1.533312
 H 3.203395 -3.396386 0.863718
 H 5.676494 -1.337826 2.519433
 H 5.773207 -0.271925 3.673056
 H 2.242532 3.890191 -3.992937
 H 0.899022 4.323557 -4.597167
 H 1.130463 -8.520704 0.095872
 H -0.176695 -7.940054 0.551409
 H -3.952038 -2.834531 -7.126502
 H -5.401988 -2.659566 -7.551194
 H -4.015198 2.586678 -0.712521
 H -4.528070 2.232804 -2.125713
 H 5.252640 4.279853 -4.363245
 H 4.273712 5.004626 -5.478704
 H 2.227278 -1.149167 -0.770489
 H 0.851876 -0.264353 -0.703368
 H -4.550462 -3.495631 2.052294
 H -5.644444 -4.576810 2.154008
 H 2.481481 1.738691 1.822033
 H 1.633009 2.731511 2.525447
K_POINTS
 1
0.0 0.0 0.0 1.0