
&control
    calculation='scf'
    pseudo_dir = './',
    outdir='./outputs',
    disk_io='high'
/
&system
    ibrav= 1, celldm(1)=20.000000, nat=  192, ntyp= 2,
    ecutwfc = 30.0, nosym=.true., occupations='smearing',
    smearing='m-v', degauss=0.025
/
&electrons
    conv_thr =  1.0d-8,
    mixing_beta = 0.7
/
&ions
    pot_extrapolation='second-order'
    wfc_extrapolation='second-order'
    ion_temperature = 'andersen'
    tempw = 1000

/
ATOMIC_SPECIES
 H  1.01  H.blyp-hgh.UPF
 O  16.0  O.blyp-hgh.UPF
ATOMIC_POSITIONS bohr
 O -5.272289 -1.448602 -1.709679
 O 3.817466 -2.022381 5.396244
 O -5.753391 5.549373 -5.401693
 O -0.137690 3.896814 -1.425892
 O -4.758601 0.785942 3.967257
 O -0.227403 5.516007 5.265210
 O -0.151545 -5.420461 -3.377421
 O 2.514630 0.059051 3.582410
 O -2.853863 -5.314391 5.694787
 O 2.068436 -2.765385 2.047060
 O 2.593100 -6.133618 2.902265
 O -3.996883 -2.967922 4.521334
 O -4.434532 -5.795991 0.711215
 O -3.622653 -5.729049 -3.853613
 O 2.497552 -2.824880 -2.376914
 O -2.063622 2.443961 0.804808
 O -1.216475 -1.878012 1.987900
 O 0.241281 -4.180438 3.782406
 O 5.348062 -4.428302 -4.998392
 O 5.363812 5.016297 2.231407
 O 5.853776 -3.028305 3.261681
 O -3.232847 -2.799722 -3.896551
 O -0.895224 2.704306 -4.939642
 O 3.962929 2.370958 2.942193
 O 2.338516 1.463462 -3.160878
 O -4.781477 2.576819 -6.299032
 O 4.516989 -5.999313 -1.231597
 O 2.037922 -1.234540 -4.704216
 O -2.079850 0.085422 -4.851733
 O 0.972492 -0.330528 0.852788
 O 4.727223 -1.732661 -3.570236
 O 5.276129 0.156229 -0.218434
 O -0.144472 4.659494 2.054674
 O -4.850377 0.754804 -4.041625
 O 0.762497 -3.839826 -0.410427
 O 4.498012 3.906976 -4.560223
 O 3.314803 5.438171 5.840003
 O -5.381141 4.142469 -1.991749
 O -0.404765 0.945873 -1.811029
 O -3.119526 -3.635948 -0.919928
 O -2.723784 5.494362 3.264117
 O -1.636042 2.823639 4.304324
 O -2.540617 -0.417618 -0.744371
 O -1.519996 -2.045053 4.802424
 O 0.625990 1.908468 5.051863
 O -4.619815 3.250987 1.346291
 O 3.003388 4.052025 -0.711185
 O 2.709535 -5.963620 -3.713187
 O -2.468914 4.435208 -2.337523
 O 5.237032 0.632660 5.466774
 O -2.896684 0.323169 1.956162
 O -0.698797 -2.304929 -2.547580
 O 0.050084 -3.424516 -5.459712
 O 5.795200 -5.917202 4.238687
 O 4.898855 -3.221538 -0.075699
 O 4.589458 -0.733394 2.446988
 O 1.291109 4.336919 -4.316178
 O -0.807851 -5.880197 0.386714
 O -5.464732 -1.562039 -5.748420
 O -4.678428 1.247441 -0.779384
 O 5.137744 1.422637 -2.279325
 O 2.869651 -0.309964 -1.258908
 O -5.258060 -1.361911 1.357963
 O 1.606731 2.472715 1.418924
 H -5.329179 -1.692325 -0.759045
 H -4.615528 -0.714142 -1.648223
 H 3.986906 -2.849410 5.910826
 H 3.290288 -2.397150 4.647511
 H -6.583508 5.068493 -5.139288
 H -5.248319 4.830749 -5.837001
 H -0.086468 2.919810 -1.719974
 H 0.575504 4.412099 -1.854405
 H -5.719683 1.020408 4.075015
 H -4.409964 1.422350 4.647927
 H 0.151125 6.370867 4.940669
 H 0.214992 5.262715 6.100734
 H -0.520589 -5.368897 -2.475386
 H -0.967965 -5.406678 -3.919408
 H 3.001851 0.923026 3.510818
 H 1.606167 0.324112 3.829089
 H -3.261188 -5.331636 6.600993
 H -1.924907 -5.618940 5.832853
 H 1.922358 -1.933428 1.529022
 H 2.989433 -3.071411 2.091458
 H 3.261259 -6.606932 2.354967
 H 1.725915 -6.520344 2.624104
 H -3.378916 -3.714110 4.280134
 H -4.756326 -3.330005 3.940959
 H -4.396966 -6.695305 0.312605
 H -3.917398 -5.193729 0.115649
 H -4.290193 -5.056712 -3.610426
 H -3.856243 -6.493161 -3.285511
 H 2.638977 -1.889186 -2.044833
 H 1.698952 -3.202328 -1.955440
 H -1.143036 2.645778 1.039176
 H -2.304079 1.499094 1.038688
 H -0.969330 -0.974703 1.664145
 H -1.124560 -1.900330 2.980205
 H 0.823704 -4.569580 3.096252
 H -0.609551 -4.104674 3.298719
 H 6.261002 -4.540013 -4.653302
 H 5.331145 -3.440448 -5.016145
 H 5.574346 5.327827 3.146262
 H 6.200058 5.017787 1.736661
 H 5.439270 -2.184054 2.949351
 H 5.581429 -3.735122 2.637440
 H -2.276303 -2.620728 -3.981284
 H -3.652315 -2.902859 -4.769325
 H -0.457721 2.823241 -4.072402
 H -1.455267 1.886192 -4.852117
 H 4.854336 2.769664 3.011113
 H 3.454299 2.959515 2.341271
 H 2.602386 0.781390 -3.836590
 H 1.540689 1.900454 -3.522764
 H -4.996281 1.861403 -5.664507
 H -3.994303 2.997824 -5.894814
 H 4.010328 -5.161947 -1.097844
 H 5.389622 -5.752447 -0.860731
 H 2.768607 -1.453955 -5.340397
 H 1.322902 -0.798560 -5.206809
 H -1.649789 -0.288626 -5.649774
 H -3.046152 0.147495 -5.013719
 H 0.809500 0.536437 1.277936
 H 1.790663 -0.043511 0.397263
 H 4.041345 -2.266348 -3.100359
 H 5.452535 -1.605253 -2.915649
 H 5.559202 0.916361 -0.761091
 H 5.444120 -0.564141 -0.845279
 H -0.177982 4.038697 2.830147
 H -0.822242 5.332606 2.279215
 H -5.025639 0.501395 -3.108680
 H -5.812178 0.858060 -4.253207
 H 0.410981 -4.677072 -0.024687
 H 1.434508 -3.618291 0.279746
 H 3.934522 4.306654 -5.279843
 H 4.738793 3.039533 -4.942743
 H 3.297462 5.525601 4.854795
 H 2.666188 6.137860 6.066921
 H -5.541667 3.621335 -1.176112
 H -4.368286 4.280570 -1.932836
 H 0.064698 0.252807 -2.312834
 H -0.569241 0.530050 -0.925905
 H -3.523488 -2.889826 -1.459227
 H -2.310678 -3.887649 -1.415490
 H -3.613864 5.714029 2.925176
 H -2.697314 5.747260 4.220479
 H -1.281050 2.342247 3.539099
 H -2.023628 3.674186 4.013640
 H -2.197721 -1.332281 -0.694576
 H -3.090217 -0.432623 0.071478
 H -2.459425 -2.342461 4.775734
 H -1.099893 -2.621161 5.496493
 H 1.196174 1.448511 5.693226
 H -0.077805 2.385524 5.573753
 H -4.940914 3.401753 2.254932
 H -3.709395 2.846298 1.424860
 H 3.493493 4.880762 -0.466773
 H 2.962983 4.198949 -1.679618
 H 3.602866 -5.554618 -3.774217
 H 2.181050 -5.480547 -3.045344
 H -2.463720 3.989694 -3.212000
 H -1.516885 4.228011 -2.039664
 H 5.794951 -0.174377 5.484457
 H 4.352425 0.294954 5.224601
 H -2.297995 -0.443202 1.996495
 H -3.381617 0.244452 2.813610
 H 0.278938 -2.401633 -2.572698
 H -0.820433 -2.247548 -1.580617
 H -0.013401 -3.151714 -4.515920
 H 0.700785 -2.811814 -5.853119
 H 5.248126 -6.358660 4.932304
 H 6.417689 -5.427788 4.811796
 H 5.869738 -3.140095 -0.195137
 H 4.639523 -2.272539 -0.114630
 H 4.718069 0.183437 2.131643
 H 3.607776 -0.802660 2.457983
 H 1.172211 4.146045 -5.256154
 H 1.697645 5.207834 -4.118093
 H -1.277467 -6.705103 0.629109
 H -1.523522 -5.244488 0.185211
 H -4.968966 -2.022075 -6.464619
 H -4.920568 -0.920682 -5.239550
 H -4.653083 2.178673 -1.047552
 H -4.671103 1.262061 0.199333
 H 5.764807 2.178339 -2.276519
 H 4.324164 1.785256 -2.700728
 H 3.684972 0.205346 -1.063801
 H 2.323740 0.288775 -1.821165
 H -6.183499 -1.241483 1.669216
 H -4.689728 -1.460361 2.138278
 H 0.677643 2.692802 1.633676
 H 1.849456 3.056848 0.653168
K_POINTS
 1
0.0 0.0 0.0 1.0