
&control
    calculation='scf'
    pseudo_dir = './',
    outdir='./outputs',
    disk_io='high'
/
&system
    ibrav= 1, celldm(1)=20.000000, nat=  192, ntyp= 2,
    ecutwfc = 30.0, nosym=.true., occupations='smearing',
    smearing='m-v', degauss=0.025
/
&electrons
    conv_thr =  1.0d-8,
    mixing_beta = 0.7
/
&ions
    pot_extrapolation='second-order'
    wfc_extrapolation='second-order'
    ion_temperature = 'andersen'
    tempw = 1000

/
ATOMIC_SPECIES
 H  1.01  H.blyp-hgh.UPF
 O  16.0  O.blyp-hgh.UPF
ATOMIC_POSITIONS bohr
 O -6.031279 -1.803264 0.053893
 O 3.580428 -1.674307 6.698283
 O -5.928504 7.806932 -5.425443
 O 3.030558 2.804763 -0.448461
 O -3.906495 0.593268 4.746089
 O 0.508522 5.535800 5.786126
 O -3.097066 -6.043768 -2.781017
 O 4.760304 0.571664 5.080572
 O -2.079559 -6.329168 7.166923
 O 1.501012 -2.752570 4.011833
 O 1.837743 -5.724548 1.623180
 O -2.702408 -4.133081 5.175519
 O -2.746136 -7.163338 -0.166712
 O -3.161414 -3.084997 -4.305062
 O 3.096399 -3.800896 -0.626578
 O -1.001894 2.389499 -2.093141
 O -1.743656 -2.514113 0.309933
 O -0.531649 -4.204818 3.230115
 O 2.348435 -4.100325 -3.083818
 O 5.848011 4.131558 0.989566
 O 4.535207 -3.760452 5.288166
 O -2.116143 -0.835011 -3.398683
 O -1.219400 2.674592 -4.875489
 O 5.176869 1.013913 -1.324883
 O 3.269846 1.181115 -3.492713
 O -4.461762 4.120658 -7.144022
 O 4.715489 -6.038973 0.781587
 O 1.157800 -0.080156 -5.539236
 O -3.336805 1.382248 -5.398033
 O 0.145693 -1.055664 2.166858
 O 6.426466 -2.375431 -3.518952
 O 3.739089 -1.533312 -0.969519
 O -1.396591 4.889829 2.679151
 O -4.311586 -0.182425 -1.935197
 O -0.640017 -5.273345 0.007574
 O 5.382862 3.440203 -8.623920
 O 2.624376 5.328200 3.669901
 O -6.757571 6.944216 -2.992359
 O 0.747532 0.768336 -3.010774
 O -5.274097 -4.830961 -1.250792
 O -3.238281 7.501124 2.142440
 O -1.367058 3.534788 4.967700
 O -3.307224 0.570954 0.244260
 O -1.173816 -0.990434 4.551886
 O 2.626736 1.908092 5.355966
 O -5.262511 1.160166 2.121336
 O 3.632087 5.154777 -2.028964
 O 0.498761 -6.110926 -2.878601
 O -5.642727 4.429609 -4.149480
 O 6.711803 1.588775 8.293460
 O -0.680115 1.594112 1.906690
 O 0.611828 -1.991081 -3.156782
 O -0.095825 -4.147785 -5.234145
 O 6.899813 -5.840032 4.043564
 O 3.436321 -2.476103 1.756917
 O 6.444240 -1.338798 3.220451
 O 1.240421 3.416623 -4.263287
 O 0.276666 -8.196293 -0.447328
 O -4.928511 -2.671761 -7.027758
 O -4.783298 2.958055 -1.591506
 O 4.546154 4.182914 -4.873988
 O 1.066604 -1.094651 -0.396317
 O -5.437430 -3.598818 1.804731
 O 2.664483 2.312924 2.929125
 H -6.700410 -2.068295 -0.615967
 H -5.598668 -2.626368 0.368117
 H 2.698266 -1.206562 6.812751
 H 3.279618 -2.583603 6.493346
 H -6.369238 7.706615 -4.515690
 H -5.057858 8.236657 -5.273288
 H 3.541939 3.472498 -0.999231
 H 2.921397 2.208036 -1.220259
 H -3.911079 -0.398529 4.635144
 H -4.735960 0.948082 4.308883
 H 0.834629 6.443621 5.955843
 H 0.566757 5.648688 4.812763
 H -2.524413 -6.271222 -3.551804
 H -3.193497 -5.104997 -3.077912
 H 3.884473 1.031182 5.113091
 H 4.504626 -0.264827 5.588763
 H -2.903668 -6.830279 7.103194
 H -1.542976 -6.698983 6.423572
 H 1.257629 -2.054843 3.401261
 H 2.452471 -2.557988 4.178711
 H 1.327700 -5.292431 2.348638
 H 1.093390 -5.682168 0.988143
 H -2.290864 -4.777206 5.804443
 H -2.049408 -3.713132 4.586026
 H -2.246091 -7.993827 -0.046869
 H -3.203352 -7.236091 -1.018722
 H -2.700658 -2.217985 -4.183085
 H -3.051170 -3.190311 -5.275988
 H 2.830684 -3.816655 -1.593272
 H 2.381293 -4.406716 -0.333698
 H -1.356732 2.809576 -2.930873
 H -0.541290 3.198297 -1.815736
 H -2.672502 -2.721851 0.557627
 H -1.365689 -1.961214 1.014128
 H 0.386981 -3.819785 3.383147
 H -0.922355 -3.966439 2.353579
 H 2.677417 -4.553573 -3.874046
 H 1.788160 -3.413626 -3.557683
 H 5.635495 5.104472 0.831577
 H 6.766410 4.084433 0.699019
 H 4.427258 -4.379034 4.544977
 H 5.248615 -4.039937 5.938238
 H -1.203641 -1.183272 -3.547026
 H -2.210970 0.045145 -3.788016
 H -0.568687 1.965005 -4.629141
 H -2.122311 2.247263 -5.046148
 H 6.073031 1.225930 -1.024925
 H 4.599034 1.272692 -0.581642
 H 4.016910 1.104309 -2.828311
 H 3.655084 1.935528 -3.982887
 H -4.163182 4.966788 -7.492585
 H -4.996112 3.797603 -7.900944
 H 4.041708 -6.749253 0.751767
 H 4.722350 -5.714034 -0.150634
 H 0.448964 -0.434473 -6.107058
 H 1.649823 0.504979 -6.183236
 H -3.840922 0.816213 -6.082704
 H -4.068870 1.971786 -5.083932
 H 0.051348 -0.080980 2.264956
 H 0.719101 -1.218868 1.392677
 H 7.072787 -2.515776 -4.253164
 H 5.657274 -1.953025 -3.986964
 H 4.434292 -0.853923 -1.113078
 H 3.676997 -1.749868 -0.003729
 H -0.875496 5.693758 2.895006
 H -1.265264 4.224949 3.373019
 H -3.382133 -0.448119 -2.168577
 H -4.877176 -0.971878 -2.079702
 H -1.350103 -5.883303 -0.303187
 H -1.136691 -4.426618 0.116769
 H 4.805620 3.199006 -7.821891
 H 5.003623 2.670234 -9.128115
 H 3.120971 4.475479 3.732193
 H 2.713038 5.678144 2.752003
 H -6.221594 6.113372 -3.199648
 H -6.313789 7.504204 -2.297739
 H 0.401989 1.579204 -2.558755
 H 1.689032 0.974864 -3.265310
 H -5.086128 -3.985406 -0.843006
 H -4.799931 -5.386207 -0.598106
 H -3.250103 6.570030 1.855304
 H -2.958458 7.527450 3.098262
 H -2.339616 3.387584 5.031316
 H -1.098176 3.134039 5.826663
 H -2.464313 0.202792 -0.070094
 H -4.032996 0.294778 -0.376949
 H -1.640153 -0.376135 3.935428
 H -1.056485 -1.770272 3.984720
 H 2.317884 2.169071 4.472010
 H 2.163629 2.531638 5.987782
 H -5.349159 0.227965 2.386168
 H -4.389041 1.189238 1.668594
 H 4.366502 5.807767 -2.223113
 H 3.016802 5.435333 -2.734127
 H 1.134433 -5.333763 -2.907734
 H 0.981607 -6.831013 -2.407917
 H -5.286333 3.963139 -4.944953
 H -5.074702 4.064743 -3.444596
 H 7.429165 1.037510 8.709059
 H 6.155624 0.930622 7.803337
 H -1.313370 2.093162 1.403293
 H -0.902759 1.748794 2.859046
 H 0.552264 -1.940014 -2.169610
 H 0.737609 -1.023045 -3.417066
 H -0.204294 -3.492192 -4.517335
 H -0.287968 -5.014030 -4.816206
 H 6.529489 -5.733079 4.932551
 H 6.403181 -6.637542 3.761443
 H 4.386631 -2.782085 1.796919
 H 3.035051 -3.322872 1.411674
 H 6.312073 -1.647073 2.300871
 H 5.618198 -0.967565 3.661194
 H 2.215886 3.397781 -4.257157
 H 1.076911 4.301874 -4.653445
 H 1.085806 -8.075248 0.059457
 H -0.280606 -7.587761 0.067738
 H -4.275221 -3.323497 -7.347903
 H -5.513581 -2.472425 -7.781541
 H -4.391130 2.937999 -0.694374
 H -4.679132 2.029821 -1.887298
 H 5.339425 4.230215 -4.248977
 H 4.332185 5.094822 -5.150777
 H 2.013735 -1.297811 -0.620939
 H 0.659846 -0.596610 -1.136910
 H -4.626549 -4.221742 1.819201
 H -6.179615 -4.245234 1.790090
 H 2.770535 1.642989 2.208745
 H 2.461258 3.076011 2.368440
K_POINTS
 1
0.0 0.0 0.0 1.0