
&control
    calculation='scf'
    pseudo_dir = './',
    outdir='./outputs',
    disk_io='high'
/
&system
    ibrav= 1, celldm(1)=20.000000, nat=  192, ntyp= 2,
    ecutwfc = 30.0, nosym=.true., occupations='smearing',
    smearing='m-v', degauss=0.025
/
&electrons
    conv_thr =  1.0d-8,
    mixing_beta = 0.7
/
&ions
    pot_extrapolation='second-order'
    wfc_extrapolation='second-order'
    ion_temperature = 'andersen'
    tempw = 1000

/
ATOMIC_SPECIES
 H  1.01  H.blyp-hgh.UPF
 O  16.0  O.blyp-hgh.UPF
ATOMIC_POSITIONS bohr
 O -6.017260 -1.793312 0.045663
 O 3.576850 -1.657025 6.747704
 O -5.939320 7.802993 -5.412658
 O 3.006095 2.807859 -0.461316
 O -3.871441 0.560074 4.741454
 O 0.505444 5.548909 5.780720
 O -3.092969 -6.071312 -2.795498
 O 4.780586 0.570051 5.105526
 O -2.063643 -6.332537 7.163568
 O 1.493620 -2.716798 4.024067
 O 1.808262 -5.740289 1.633630
 O -2.692308 -4.130642 5.188813
 O -2.720269 -7.152834 -0.176916
 O -3.159129 -3.078773 -4.291302
 O 3.102612 -3.817452 -0.619166
 O -1.007020 2.384153 -2.070344
 O -1.765846 -2.517340 0.277283
 O -0.539138 -4.191176 3.253517
 O 2.315798 -4.134539 -3.099422
 O 5.885979 4.114419 0.970033
 O 4.538233 -3.779941 5.281346
 O -2.122234 -0.816274 -3.403084
 O -1.205337 2.651075 -4.882037
 O 5.206900 0.964670 -1.400091
 O 3.297692 1.175496 -3.477195
 O -4.458579 4.136130 -7.174640
 O 4.689757 -6.035183 0.781743
 O 1.129024 -0.054166 -5.545970
 O -3.317809 1.390333 -5.388233
 O 0.152707 -1.054552 2.177710
 O 6.426691 -2.350190 -3.527526
 O 3.723566 -1.509404 -0.960651
 O -1.405225 4.884371 2.654417
 O -4.304004 -0.177934 -1.920917
 O -0.677545 -5.292976 0.004297
 O 5.353276 3.484777 -8.625279
 O 2.599078 5.310326 3.605386
 O -6.741826 6.959350 -3.008849
 O 0.748897 0.753309 -3.005369
 O -5.304666 -4.805622 -1.232718
 O -3.264152 7.507637 2.114640
 O -1.338938 3.559072 4.963970
 O -3.310307 0.598025 0.243894
 O -1.155949 -1.002621 4.553841
 O 2.642684 1.922765 5.390923
 O -5.216042 1.162759 2.124719
 O 3.611090 5.143994 -2.040214
 O 0.473805 -6.126166 -2.859368
 O -5.660260 4.438503 -4.169366
 O 6.703500 1.552590 8.349861
 O -0.680098 1.584133 1.923615
 O 0.571475 -1.945213 -3.163669
 O -0.077911 -4.156695 -5.219057
 O 6.894980 -5.851346 4.053937
 O 3.452927 -2.435984 1.785563
 O 6.450332 -1.373417 3.241595
 O 1.240517 3.408845 -4.259215
 O 0.276597 -8.179331 -0.467669
 O -4.938823 -2.671922 -7.059540
 O -4.766437 2.982078 -1.625910
 O 4.525390 4.179394 -4.874576
 O 1.039091 -1.089817 -0.389624
 O -5.432128 -3.606836 1.820139
 O 2.680472 2.324375 2.929751
 H -6.637466 -2.066298 -0.652658
 H -5.583259 -2.619136 0.356513
 H 2.662429 -1.289759 6.882072
 H 3.347993 -2.614341 6.583685
 H -6.441411 7.690233 -4.570830
 H -5.102175 8.316386 -5.352538
 H 3.618034 3.487418 -0.833196
 H 2.848697 2.271789 -1.274125
 H -3.929505 -0.409274 4.547613
 H -4.754065 0.941084 4.465578
 H 0.787617 6.479267 5.987214
 H 0.465660 5.668552 4.807949
 H -2.531852 -6.245548 -3.587006
 H -3.217608 -5.146720 -3.087363
 H 3.862084 0.947492 5.208061
 H 4.506396 -0.281792 5.566515
 H -2.909556 -6.848726 7.202349
 H -1.559927 -6.738044 6.423354
 H 1.261305 -1.981630 3.406549
 H 2.423747 -2.577219 4.213688
 H 1.388128 -5.237574 2.361381
 H 1.107740 -5.742448 0.933489
 H -2.224198 -4.749101 5.777129
 H -2.076581 -3.673991 4.611826
 H -2.209567 -7.981603 -0.068315
 H -3.158942 -7.264567 -1.046190
 H -2.667408 -2.217475 -4.189710
 H -3.034342 -3.135414 -5.272877
 H 2.829321 -3.797834 -1.566286
 H 2.386375 -4.429120 -0.292382
 H -1.371764 2.755435 -2.926794
 H -0.523410 3.218133 -1.811864
 H -2.644728 -2.765992 0.618206
 H -1.349038 -1.979230 0.973091
 H 0.389386 -3.802991 3.378691
 H -0.911162 -3.947243 2.376920
 H 2.778377 -4.492571 -3.908300
 H 1.831804 -3.336632 -3.480824
 H 5.638750 5.070087 0.866695
 H 6.804039 4.061445 0.613669
 H 4.352523 -4.450410 4.603162
 H 5.221235 -4.042040 5.951787
 H -1.220062 -1.199794 -3.514464
 H -2.221816 0.057531 -3.834752
 H -0.535636 1.991531 -4.596329
 H -2.048340 2.191359 -5.002726
 H 6.134114 1.112275 -1.118555
 H 4.659051 1.219490 -0.629688
 H 4.041666 1.086678 -2.839281
 H 3.565501 1.956970 -4.015776
 H -4.096250 4.987509 -7.534100
 H -5.009883 3.838247 -7.925115
 H 4.057966 -6.783720 0.693270
 H 4.865189 -5.782983 -0.153290
 H 0.449439 -0.400490 -6.158094
 H 1.682778 0.472932 -6.176104
 H -3.855092 0.893586 -6.077827
 H -4.014799 2.052373 -5.162012
 H 0.127247 -0.085541 2.253019
 H 0.686068 -1.176907 1.379397
 H 7.164018 -2.478840 -4.166121
 H 5.656325 -1.980202 -3.980739
 H 4.415456 -0.821390 -1.162103
 H 3.694527 -1.692684 -0.004307
 H -0.910703 5.699934 2.941197
 H -1.268229 4.218805 3.417406
 H -3.375461 -0.471899 -2.111856
 H -4.863501 -0.974417 -2.088879
 H -1.400657 -5.904264 -0.280828
 H -1.186478 -4.467677 0.054637
 H 4.964891 3.104198 -7.772233
 H 5.010252 2.675298 -9.066841
 H 3.214124 4.545694 3.694229
 H 2.658295 5.579338 2.657356
 H -6.192566 6.167614 -3.167642
 H -6.323157 7.665240 -2.465576
 H 0.419729 1.552011 -2.549961
 H 1.704161 0.928134 -3.211822
 H -5.037932 -3.986427 -0.797320
 H -4.778408 -5.449023 -0.695037
 H -3.226730 6.558204 1.857719
 H -2.888517 7.564104 3.010612
 H -2.288126 3.300407 5.009765
 H -1.018742 3.096279 5.787563
 H -2.471897 0.204011 -0.049686
 H -3.985383 0.308670 -0.415301
 H -1.678863 -0.335286 4.068934
 H -1.056332 -1.757457 3.941432
 H 2.319089 2.158519 4.454949
 H 2.205340 2.404357 6.131932
 H -5.364129 0.211854 2.296864
 H -4.371015 1.126695 1.629714
 H 4.288665 5.807897 -2.299633
 H 2.928197 5.369474 -2.688626
 H 1.179456 -5.419762 -2.824552
 H 0.867679 -6.935375 -2.464513
 H -5.244152 3.891647 -4.893991
 H -5.137961 4.053066 -3.393054
 H 7.456706 1.010612 8.703481
 H 6.198228 0.934666 7.772016
 H -1.337422 2.124676 1.447145
 H -0.933806 1.784868 2.860456
 H 0.532543 -1.888813 -2.192712
 H 0.853816 -1.006466 -3.420550
 H -0.279107 -3.458927 -4.551327
 H -0.293433 -4.967511 -4.704927
 H 6.487556 -5.783133 4.946163
 H 6.419150 -6.652095 3.737083
 H 4.353477 -2.821200 1.839039
 H 3.074597 -3.277024 1.479777
 H 6.393613 -1.652320 2.295559
 H 5.578670 -1.143590 3.658315
 H 2.202670 3.332749 -4.281572
 H 1.043194 4.293491 -4.662874
 H 1.120791 -8.099641 0.022769
 H -0.287994 -7.523373 0.019417
 H -4.337503 -3.372545 -7.397954
 H -5.492527 -2.404670 -7.830273
 H -4.463767 3.027697 -0.707758
 H -4.748993 2.040774 -1.868373
 H 5.321162 4.150125 -4.282696
 H 4.336105 5.088004 -5.125116
 H 1.965827 -1.326617 -0.657531
 H 0.695709 -0.579487 -1.169565
 H -4.709991 -4.311873 1.832339
 H -6.214156 -4.177587 1.753868
 H 2.809756 1.589407 2.302193
 H 2.536725 3.102904 2.345907
K_POINTS
 1
0.0 0.0 0.0 1.0