
&control
    calculation='scf'
    pseudo_dir = './',
    outdir='./outputs',
    disk_io='high'
/
&system
    ibrav= 1, celldm(1)=20.000000, nat=  192, ntyp= 2,
    ecutwfc = 30.0, nosym=.true., occupations='smearing',
    smearing='m-v', degauss=0.025
/
&electrons
    conv_thr =  1.0d-8,
    mixing_beta = 0.7
/
&ions
    pot_extrapolation='second-order'
    wfc_extrapolation='second-order'
    ion_temperature = 'andersen'
    tempw = 1000

/
ATOMIC_SPECIES
 H  1.01  H.blyp-hgh.UPF
 O  16.0  O.blyp-hgh.UPF
ATOMIC_POSITIONS bohr
 O -5.945409 -1.750971 -0.007721
 O 3.539591 -1.616311 6.956743
 O -6.001151 7.752481 -5.449906
 O 2.925860 2.813688 -0.487253
 O -3.774846 0.417778 4.714753
 O 0.486068 5.637607 5.771510
 O -3.086994 -6.151639 -2.872249
 O 4.835134 0.501065 5.222252
 O -2.033533 -6.362346 7.116895
 O 1.457292 -2.567876 4.062762
 O 1.697944 -5.780781 1.612047
 O -2.655102 -4.127813 5.238920
 O -2.650024 -7.150626 -0.235352
 O -3.151355 -3.048896 -4.286720
 O 3.099035 -3.921439 -0.552995
 O -1.038826 2.413927 -1.979278
 O -1.861093 -2.538932 0.174907
 O -0.572581 -4.149473 3.333759
 O 2.208842 -4.231003 -3.227619
 O 6.041843 4.017961 0.892089
 O 4.500715 -3.844702 5.249854
 O -2.144647 -0.746151 -3.411587
 O -1.117918 2.569919 -4.882892
 O 5.298438 0.759375 -1.660513
 O 3.406538 1.165770 -3.429397
 O -4.417790 4.181011 -7.300186
 O 4.617136 -6.020777 0.753196
 O 1.018150 0.022590 -5.620822
 O -3.317084 1.429527 -5.319629
 O 0.221840 -1.056534 2.186132
 O 6.444708 -2.250314 -3.500298
 O 3.670158 -1.385564 -0.950676
 O -1.426640 4.865032 2.581715
 O -4.289976 -0.179730 -1.907638
 O -0.827051 -5.359072 -0.002642
 O 5.208490 3.581535 -8.535340
 O 2.548355 5.187148 3.374305
 O -6.771739 7.011673 -3.121256
 O 0.773548 0.673166 -2.948780
 O -5.363068 -4.704010 -1.081264
 O -3.323568 7.494517 1.994393
 O -1.260760 3.598954 4.959203
 O -3.297146 0.717579 0.262636
 O -1.101131 -1.037477 4.603982
 O 2.691161 1.948154 5.551915
 O -5.036313 1.157197 2.124870
 O 3.528912 5.123831 -2.082270
 O 0.386889 -6.205999 -2.806688
 O -5.601084 4.451663 -4.175956
 O 6.669482 1.400589 8.548591
 O -0.711597 1.579868 2.020379
 O 0.423771 -1.774751 -3.215702
 O -0.026456 -4.199710 -5.123778
 O 6.850642 -5.916090 4.097231
 O 3.544512 -2.314859 1.899548
 O 6.450063 -1.468273 3.321685
 O 1.255106 3.381815 -4.243588
 O 0.277062 -8.103166 -0.536937
 O -4.961951 -2.663608 -7.173402
 O -4.707741 3.092410 -1.766907
 O 4.330373 4.115346 -4.908882
 O 0.940479 -1.077968 -0.426236
 O -5.447691 -3.674893 1.833134
 O 2.741766 2.355454 2.917585
 H -6.485124 -2.088977 -0.740376
 H -5.638589 -2.529102 0.523688
 H 2.586712 -1.490403 7.159885
 H 3.804528 -2.547888 6.715273
 H -6.382490 7.649107 -4.538467
 H -5.550111 8.646968 -5.513749
 H 3.703859 3.366597 -0.390107
 H 2.639455 2.719445 -1.428722
 H -4.083320 -0.433736 4.321035
 H -4.665045 0.849115 4.806993
 H 0.561800 6.558058 6.125529
 H 0.230231 5.592863 4.838768
 H -2.333210 -6.330257 -3.488598
 H -3.424552 -5.251072 -2.907174
 H 4.023958 1.020135 5.464312
 H 4.813963 -0.440535 5.506271
 H -2.848463 -6.873746 7.349558
 H -1.478419 -6.987521 6.598243
 H 1.312103 -1.778511 3.506547
 H 2.371747 -2.677193 4.297404
 H 1.466090 -5.125207 2.288716
 H 0.967810 -5.783800 0.942639
 H -1.992816 -4.659006 5.714049
 H -2.007054 -3.562691 4.791802
 H -2.150694 -7.965408 -0.022651
 H -2.825605 -7.158305 -1.214418
 H -2.772147 -2.191930 -3.933620
 H -3.059838 -3.171389 -5.262303
 H 2.919438 -3.769704 -1.492631
 H 2.504202 -4.600358 -0.144743
 H -1.349979 2.481157 -2.917233
 H -0.500598 3.170340 -1.608416
 H -2.499500 -2.884152 0.823781
 H -1.251280 -2.030599 0.738832
 H 0.273236 -3.592512 3.536365
 H -0.744154 -3.940777 2.388813
 H 3.052120 -4.137142 -3.754933
 H 1.946601 -3.297483 -3.095489
 H 5.803226 4.968595 1.063847
 H 6.867154 4.009344 0.350528
 H 4.200793 -4.743821 4.994711
 H 5.281200 -4.145641 5.815932
 H -1.167915 -0.978879 -3.301459
 H -2.122772 -0.033976 -4.091645
 H -0.294705 2.143200 -4.545712
 H -1.787235 1.869640 -5.065068
 H 6.266825 0.619627 -1.523851
 H 4.963747 1.163400 -0.832928
 H 4.273861 1.118206 -2.949711
 H 3.451826 1.934242 -4.032457
 H -4.008774 5.025767 -7.622870
 H -5.111754 3.970840 -7.944291
 H 3.973224 -6.690964 0.432188
 H 5.229276 -5.897082 0.001721
 H 0.433426 -0.345958 -6.314217
 H 1.779613 0.389470 -6.120404
 H -3.407024 0.985794 -6.256379
 H -3.725427 2.318893 -5.295612
 H 0.132748 -0.087701 2.274509
 H 0.494663 -1.113137 1.252867
 H 7.338368 -2.276538 -3.923932
 H 5.775165 -2.065050 -4.181729
 H 4.209121 -0.589529 -1.226539
 H 3.895746 -1.536189 -0.017687
 H -1.107658 5.744501 2.925568
 H -1.319850 4.320980 3.429864
 H -3.380179 -0.519552 -2.132143
 H -4.894219 -0.930449 -2.125164
 H -1.561480 -6.006606 -0.187331
 H -1.152617 -4.457669 -0.150694
 H 5.689359 3.252374 -7.748395
 H 5.248856 2.897971 -9.239784
 H 3.483232 5.006671 3.613836
 H 2.371169 5.323704 2.417931
 H -5.923080 6.519356 -3.091447
 H -6.317313 7.889334 -3.036464
 H 0.266968 1.395948 -2.502274
 H 1.748798 0.859722 -3.041660
 H -4.817255 -4.022347 -0.641522
 H -4.792870 -5.490732 -1.235526
 H -3.040035 6.560634 1.844067
 H -2.806499 7.698871 2.794428
 H -2.090059 3.095026 4.894846
 H -0.713924 3.165011 5.642188
 H -2.432693 0.272229 0.171841
 H -3.799887 0.318248 -0.491094
 H -1.794224 -0.364646 4.534667
 H -1.022232 -1.490305 3.727932
 H 2.287674 2.329626 4.715251
 H 2.170901 2.163550 6.341451
 H -5.551630 0.325437 2.121829
 H -4.296636 0.973149 1.500545
 H 4.026773 5.804953 -2.555387
 H 2.645860 5.009509 -2.452951
 H 1.241093 -5.820983 -2.505934
 H 0.323169 -7.159734 -2.610068
 H -5.237980 3.804784 -4.829445
 H -5.542480 4.079444 -3.237284
 H 7.473747 0.838220 8.682141
 H 6.340566 1.032913 7.695202
 H -1.287674 2.095943 1.410140
 H -0.895842 1.906259 2.926172
 H 0.418215 -1.841317 -2.242526
 H 1.066636 -1.052385 -3.407110
 H -0.423672 -3.327970 -4.886118
 H -0.243636 -4.797952 -4.382203
 H 6.481662 -5.863184 5.004017
 H 6.473677 -6.664389 3.601087
 H 4.409658 -2.690819 2.097561
 H 2.926536 -2.986281 1.588706
 H 6.574287 -1.835778 2.402788
 H 5.495415 -1.700268 3.430412
 H 2.225557 3.410253 -4.364041
 H 0.972623 4.176662 -4.770763
 H 1.177373 -8.341328 -0.213469
 H -0.102920 -7.256865 -0.176592
 H -4.561371 -3.489586 -7.514851
 H -5.334106 -2.230567 -7.984884
 H -4.630225 3.225471 -0.814328
 H -4.891536 2.140766 -1.793039
 H 5.251940 4.027782 -4.523009
 H 4.405670 5.077609 -5.011073
 H 1.861964 -1.379315 -0.664887
 H 0.821330 -0.253793 -0.997508
 H -4.854275 -4.447282 2.129754
 H -6.362581 -3.938615 1.700340
 H 2.924074 1.488601 2.545108
 H 2.750740 3.064456 2.236598
K_POINTS
 1
0.0 0.0 0.0 1.0