
&control
    calculation='scf'
    pseudo_dir = './',
    outdir='./outputs',
    disk_io='high'
/
&system
    ibrav= 1, celldm(1)=20.000000, nat=  192, ntyp= 2,
    ecutwfc = 30.0, nosym=.true., occupations='smearing',
    smearing='m-v', degauss=0.025
/
&electrons
    conv_thr =  1.0d-8,
    mixing_beta = 0.7
/
&ions
    pot_extrapolation='second-order'
    wfc_extrapolation='second-order'
    ion_temperature = 'andersen'
    tempw = 1000

/
ATOMIC_SPECIES
 H  1.01  H.blyp-hgh.UPF
 O  16.0  O.blyp-hgh.UPF
ATOMIC_POSITIONS bohr
 O -5.275135 -1.433312 -1.744784
 O 3.783003 -2.010251 5.402035
 O -5.757065 5.572206 -5.389842
 O -0.126554 3.911028 -1.404723
 O -4.771941 0.795794 3.982675
 O -0.229867 5.532185 5.272159
 O -0.160946 -5.423734 -3.368337
 O 2.530918 0.040448 3.584210
 O -2.851477 -5.320749 5.705966
 O 2.090404 -2.749307 2.078726
 O 2.600889 -6.142276 2.901859
 O -3.988220 -2.970605 4.510563
 O -4.431867 -5.783503 0.707568
 O -3.625873 -5.733815 -3.874146
 O 2.531009 -2.840804 -2.403746
 O -2.087010 2.450137 0.739362
 O -1.223110 -1.915782 2.021623
 O 0.246737 -4.185154 3.782958
 O 5.336772 -4.453545 -5.003085
 O 5.332370 5.018119 2.230667
 O 5.845851 -3.045243 3.261283
 O -3.233283 -2.775063 -3.902560
 O -0.900478 2.716969 -4.935814
 O 3.975426 2.373505 2.954288
 O 2.342004 1.485988 -3.181239
 O -4.758944 2.549012 -6.317133
 O 4.523903 -5.998716 -1.226406
 O 2.045810 -1.217995 -4.723935
 O -2.086741 0.070486 -4.859710
 O 0.986359 -0.325554 0.868048
 O 4.721110 -1.730958 -3.548086
 O 5.291454 0.163775 -0.229926
 O -0.136839 4.666312 2.090565
 O -4.815963 0.759105 -4.045208
 O 0.772366 -3.848071 -0.415406
 O 4.481972 3.947464 -4.584242
 O 3.286311 5.438507 5.826816
 O -5.399333 4.197408 -1.988666
 O -0.403545 0.936963 -1.827436
 O -3.120241 -3.671398 -0.897481
 O -2.736018 5.490026 3.253327
 O -1.660941 2.831980 4.342522
 O -2.524399 -0.453213 -0.745751
 O -1.506693 -2.016757 4.790891
 O 0.627327 1.917162 5.073708
 O -4.598344 3.237253 1.337839
 O 3.026183 4.075804 -0.727653
 O 2.708441 -5.946089 -3.727949
 O -2.452578 4.414513 -2.346569
 O 5.191572 0.639196 5.486866
 O -2.875567 0.330054 1.953013
 O -0.697198 -2.288931 -2.575146
 O 0.054409 -3.440430 -5.458813
 O 5.801422 -5.907709 4.235044
 O 4.884659 -3.234315 -0.049379
 O 4.579003 -0.734201 2.438739
 O 1.308140 4.327596 -4.311933
 O -0.838044 -5.884120 0.369851
 O -5.452669 -1.587691 -5.756715
 O -4.689860 1.234470 -0.769150
 O 5.129441 1.420627 -2.246916
 O 2.864348 -0.315181 -1.287180
 O -5.251738 -1.380016 1.358467
 O 1.613420 2.449060 1.402930
 H -5.304078 -1.740886 -0.805047
 H -4.639036 -0.684145 -1.608306
 H 4.093144 -2.820862 5.883124
 H 3.332468 -2.448166 4.645473
 H -6.597587 5.093050 -5.162223
 H -5.197500 4.860033 -5.757858
 H -0.173782 2.990563 -1.826805
 H 0.596516 4.399803 -1.853488
 H -5.696366 1.119265 4.116328
 H -4.327906 1.425405 4.616990
 H 0.148373 6.376539 4.921033
 H 0.227904 5.318957 6.108359
 H -0.518884 -5.361623 -2.464318
 H -0.963266 -5.360105 -3.922002
 H 3.055826 0.893628 3.525356
 H 1.638289 0.356913 3.840101
 H -3.210477 -5.331368 6.632729
 H -1.926042 -5.659113 5.796303
 H 1.900429 -1.903707 1.594333
 H 3.032214 -3.012067 2.096994
 H 3.266105 -6.617366 2.350926
 H 1.745833 -6.563898 2.643594
 H -3.443355 -3.800549 4.375672
 H -4.796754 -3.404074 4.089415
 H -4.497119 -6.680119 0.306595
 H -3.885977 -5.232910 0.091893
 H -4.225731 -4.998797 -3.640533
 H -3.875307 -6.440583 -3.243993
 H 2.667057 -1.933210 -1.976753
 H 1.733261 -3.236866 -1.966780
 H -1.164717 2.591204 1.026758
 H -2.383412 1.551696 1.080349
 H -0.970651 -0.993740 1.710492
 H -1.180462 -1.945099 3.019814
 H 0.787873 -4.636463 3.104203
 H -0.639082 -4.130322 3.374454
 H 6.229770 -4.506380 -4.610416
 H 5.279996 -3.464510 -5.003830
 H 5.623138 5.399462 3.131966
 H 6.187095 5.060174 1.750349
 H 5.413136 -2.184032 3.025110
 H 5.459570 -3.711785 2.652541
 H -2.277098 -2.594120 -3.962637
 H -3.619213 -2.875027 -4.790799
 H -0.485814 2.848881 -4.063588
 H -1.435604 1.868742 -4.892738
 H 4.849328 2.806998 2.982488
 H 3.445652 2.884385 2.302763
 H 2.528984 0.724459 -3.797536
 H 1.524149 1.889575 -3.535969
 H -5.002873 1.842687 -5.683241
 H -3.990215 2.971188 -5.885771
 H 4.007857 -5.184953 -1.043541
 H 5.388369 -5.773314 -0.827339
 H 2.755619 -1.461995 -5.377487
 H 1.352177 -0.761083 -5.235663
 H -1.632127 -0.234425 -5.671712
 H -3.056337 0.043708 -5.000692
 H 0.837663 0.522766 1.339007
 H 1.839672 -0.038368 0.461392
 H 4.065403 -2.298722 -3.072807
 H 5.482720 -1.616307 -2.936370
 H 5.569448 0.916086 -0.793212
 H 5.366712 -0.589151 -0.877001
 H -0.065719 4.111549 2.925209
 H -0.837062 5.318049 2.349057
 H -5.020249 0.468320 -3.128123
 H -5.766533 0.853806 -4.323409
 H 0.425588 -4.646032 0.056920
 H 1.443125 -3.545421 0.244390
 H 4.016109 4.345429 -5.375669
 H 4.754998 3.088187 -4.958960
 H 3.247293 5.547465 4.846226
 H 2.685112 6.153999 6.125410
 H -5.559296 3.627842 -1.205807
 H -4.370969 4.156208 -2.010153
 H 0.052817 0.245920 -2.338450
 H -0.478368 0.551860 -0.930928
 H -3.651773 -2.944760 -1.366682
 H -2.327826 -3.811653 -1.479149
 H -3.628466 5.722239 2.919997
 H -2.722980 5.791151 4.205042
 H -1.314104 2.394065 3.546288
 H -1.995963 3.710038 4.053209
 H -2.229075 -1.384997 -0.729855
 H -3.107643 -0.439659 0.049426
 H -2.455247 -2.289232 4.784760
 H -1.126745 -2.560017 5.530923
 H 1.160784 1.445976 5.743648
 H -0.139147 2.324493 5.556494
 H -4.911594 3.337433 2.258404
 H -3.661064 2.885149 1.365477
 H 3.529181 4.899589 -0.507562
 H 2.985007 4.169504 -1.703061
 H 3.601086 -5.539583 -3.769673
 H 2.212451 -5.533547 -2.991992
 H -2.492551 4.008910 -3.236532
 H -1.488013 4.255234 -2.053187
 H 5.753082 -0.190604 5.539347
 H 4.323071 0.283353 5.199134
 H -2.303252 -0.488957 2.020359
 H -3.321398 0.293874 2.843760
 H 0.288317 -2.288392 -2.611450
 H -0.856482 -2.308664 -1.608193
 H -0.070919 -3.172904 -4.528242
 H 0.709773 -2.812116 -5.823092
 H 5.323578 -6.413070 4.939549
 H 6.415986 -5.408305 4.805325
 H 5.834461 -3.151005 -0.269233
 H 4.575006 -2.313193 -0.193394
 H 4.707853 0.212165 2.204370
 H 3.600554 -0.857260 2.410505
 H 1.185142 4.196952 -5.268441
 H 1.773503 5.204699 -4.113838
 H -1.286114 -6.708185 0.640550
 H -1.586404 -5.283129 0.179928
 H -4.891667 -2.022563 -6.442113
 H -4.976407 -0.934684 -5.197907
 H -4.686965 2.165644 -1.046051
 H -4.665373 1.257640 0.206479
 H 5.746653 2.181119 -2.253677
 H 4.331885 1.747435 -2.725420
 H 3.692067 0.198422 -1.077548
 H 2.314314 0.310411 -1.824888
 H -6.171632 -1.270920 1.680827
 H -4.670544 -1.464537 2.136821
 H 0.697854 2.657455 1.694033
 H 1.806265 3.041978 0.626502
K_POINTS
 1
0.0 0.0 0.0 1.0