
&control
    calculation='scf'
    pseudo_dir = './',
    outdir='./outputs',
    disk_io='high'
/
&system
    ibrav= 1, celldm(1)=20.000000, nat=  192, ntyp= 2,
    ecutwfc = 30.0, nosym=.true., occupations='smearing',
    smearing='m-v', degauss=0.025
/
&electrons
    conv_thr =  1.0d-8,
    mixing_beta = 0.7
/
&ions
    pot_extrapolation='second-order'
    wfc_extrapolation='second-order'
    ion_temperature = 'andersen'
    tempw = 1000

/
ATOMIC_SPECIES
 H  1.01  H.blyp-hgh.UPF
 O  16.0  O.blyp-hgh.UPF
ATOMIC_POSITIONS bohr
 O -5.914469 -1.735980 -0.027914
 O 3.540894 -1.606558 7.037069
 O -6.020000 7.741511 -5.488928
 O 2.881653 2.803961 -0.478589
 O -3.759318 0.363936 4.704618
 O 0.477773 5.661448 5.789955
 O -3.094903 -6.191427 -2.883323
 O 4.870443 0.467911 5.260743
 O -2.026691 -6.382473 7.095559
 O 1.436229 -2.524185 4.082137
 O 1.663153 -5.789250 1.574344
 O -2.624123 -4.127479 5.258219
 O -2.635778 -7.164191 -0.264392
 O -3.161886 -3.044222 -4.282299
 O 3.100970 -3.956477 -0.506958
 O -1.054054 2.410984 -1.938445
 O -1.898745 -2.549543 0.149987
 O -0.576934 -4.128779 3.349117
 O 2.193538 -4.250444 -3.274475
 O 6.091051 3.979863 0.866965
 O 4.483951 -3.881914 5.241087
 O -2.137169 -0.720480 -3.412590
 O -1.077740 2.533755 -4.871640
 O 5.325339 0.686283 -1.732541
 O 3.437877 1.160638 -3.412039
 O -4.392984 4.182206 -7.336518
 O 4.604959 -6.023561 0.742605
 O 0.980692 0.041429 -5.656356
 O -3.328817 1.430748 -5.304864
 O 0.255711 -1.053064 2.176707
 O 6.452237 -2.216457 -3.475981
 O 3.650230 -1.333317 -0.950888
 O -1.431136 4.870852 2.566970
 O -4.288852 -0.190581 -1.916821
 O -0.867577 -5.376933 0.002024
 O 5.169215 3.610684 -8.490387
 O 2.544770 5.125077 3.314233
 O -6.773444 7.031592 -3.167652
 O 0.789867 0.646577 -2.911669
 O -5.375565 -4.675715 -1.023042
 O -3.322530 7.474112 1.958784
 O -1.238482 3.603800 4.946864
 O -3.276448 0.758517 0.266049
 O -1.081673 -1.049911 4.635233
 O 2.709400 1.944533 5.617245
 O -4.980966 1.152878 2.124721
 O 3.502645 5.115745 -2.084922
 O 0.351990 -6.237266 -2.798758
 O -5.569905 4.459072 -4.160864
 O 6.660480 1.337288 8.600217
 O -0.727465 1.583501 2.062015
 O 0.374493 -1.739421 -3.235214
 O -0.016884 -4.213371 -5.089140
 O 6.840058 -5.932107 4.103521
 O 3.578884 -2.263224 1.942788
 O 6.421362 -1.487581 3.327189
 O 1.270066 3.379268 -4.240868
 O 0.272634 -8.083056 -0.570180
 O -4.961119 -2.664999 -7.199731
 O -4.689038 3.135763 -1.815990
 O 4.250041 4.090251 -4.923897
 O 0.907801 -1.068820 -0.463913
 O -5.465125 -3.696912 1.827623
 O 2.759584 2.362112 2.925006
 H -6.463041 -2.121509 -0.744865
 H -5.679516 -2.479256 0.577287
 H 2.581746 -1.608825 7.213279
 H 3.850703 -2.461058 6.700559
 H -6.309566 7.605117 -4.581890
 H -5.768707 8.681272 -5.560405
 H 3.738394 3.319196 -0.395997
 H 2.704812 2.958033 -1.443792
 H -4.090178 -0.446588 4.302049
 H -4.589317 0.844231 4.819918
 H 0.450818 6.605130 6.072819
 H 0.217268 5.636297 4.849640
 H -2.260330 -6.242994 -3.420242
 H -3.406700 -5.263261 -2.911712
 H 4.112007 1.038531 5.545073
 H 4.871493 -0.434482 5.529419
 H -2.841084 -6.879744 7.304237
 H -1.420658 -7.068014 6.705951
 H 1.374722 -1.689512 3.508912
 H 2.389246 -2.691218 4.301450
 H 1.418080 -5.116049 2.252156
 H 0.820776 -5.707592 1.014350
 H -1.997130 -4.701361 5.757416
 H -2.014385 -3.474116 4.821403
 H -2.163066 -7.967216 0.014373
 H -2.682325 -7.071861 -1.274853
 H -2.821727 -2.195579 -3.917330
 H -3.051779 -3.170459 -5.246989
 H 2.891658 -3.862568 -1.456753
 H 2.561196 -4.681932 -0.191367
 H -1.275891 2.518456 -2.880371
 H -0.543082 3.191375 -1.590433
 H -2.454438 -2.931999 0.860090
 H -1.188956 -2.033189 0.625184
 H 0.181886 -3.539065 3.671840
 H -0.675947 -3.981428 2.402282
 H 3.067527 -4.024385 -3.661581
 H 1.903156 -3.334709 -3.028672
 H 5.896189 4.899448 1.115765
 H 6.860314 4.043635 0.303943
 H 4.107658 -4.779196 5.125007
 H 5.302670 -4.116936 5.740967
 H -1.158701 -0.872537 -3.218612
 H -2.117981 -0.089265 -4.165853
 H -0.199072 2.225149 -4.588023
 H -1.670681 1.808645 -5.133633
 H 6.268407 0.424028 -1.689214
 H 5.092293 1.182972 -0.915372
 H 4.357309 1.175286 -3.043097
 H 3.523301 1.923974 -4.020260
 H -4.041305 5.044389 -7.652636
 H -5.133283 4.046081 -7.977722
 H 3.923473 -6.577956 0.319843
 H 5.295260 -5.865896 0.055255
 H 0.429650 -0.353178 -6.379347
 H 1.779570 0.350405 -6.124892
 H -3.186665 1.040560 -6.206629
 H -3.606297 2.360927 -5.352543
 H 0.032894 -0.087637 2.319595
 H 0.454577 -1.135872 1.184045
 H 7.347075 -2.232305 -3.898832
 H 5.898861 -2.064767 -4.274136
 H 4.114139 -0.526948 -1.240580
 H 3.968910 -1.516012 -0.031426
 H -1.182279 5.767573 2.811065
 H -1.347769 4.314977 3.397007
 H -3.392108 -0.482733 -2.245793
 H -4.923078 -0.908660 -2.112836
 H -1.651311 -5.994158 -0.135695
 H -1.100116 -4.442404 -0.235118
 H 5.831682 3.324799 -7.837352
 H 5.371044 3.041109 -9.258897
 H 3.492203 5.177481 3.519147
 H 2.321739 5.310534 2.388216
 H -5.920355 6.595409 -3.115921
 H -6.429429 7.963885 -3.080672
 H 0.212803 1.337014 -2.487522
 H 1.726729 0.928676 -2.979232
 H -4.696539 -4.090789 -0.562317
 H -4.793796 -5.384956 -1.384341
 H -2.994373 6.569403 1.783021
 H -2.840946 7.782174 2.763394
 H -2.042585 3.042998 4.896914
 H -0.642614 3.210674 5.648043
 H -2.401888 0.334359 0.325751
 H -3.781577 0.334497 -0.471315
 H -1.845886 -0.425835 4.647344
 H -1.012163 -1.294431 3.673236
 H 2.290244 2.443133 4.849366
 H 2.071335 2.201186 6.330600
 H -5.639301 0.413009 2.110725
 H -4.263301 0.941460 1.465217
 H 3.889162 5.814684 -2.667150
 H 2.595326 4.909684 -2.402810
 H 1.211581 -5.997590 -2.418296
 H 0.170396 -7.171741 -2.612106
 H -5.230069 3.796826 -4.766781
 H -5.616360 4.031631 -3.276148
 H 7.459861 0.811734 8.693332
 H 6.354992 1.112833 7.706363
 H -1.247156 2.063758 1.373055
 H -0.848879 1.959207 2.937053
 H 0.373754 -1.826225 -2.254068
 H 1.019179 -1.029796 -3.405462
 H -0.412588 -3.325134 -5.035810
 H -0.198451 -4.744275 -4.280481
 H 6.485249 -5.924151 5.022169
 H 6.430674 -6.670909 3.613940
 H 4.405698 -2.686812 2.169834
 H 2.917711 -2.882404 1.592337
 H 6.706741 -1.947664 2.496614
 H 5.521892 -1.813109 3.400202
 H 2.255416 3.539767 -4.384856
 H 0.961523 4.104055 -4.820402
 H 1.163770 -8.400926 -0.262034
 H 0.096900 -7.173654 -0.227270
 H -4.603415 -3.517803 -7.515169
 H -5.295197 -2.201082 -8.024535
 H -4.626016 3.286065 -0.849507
 H -4.917748 2.178962 -1.823528
 H 5.189778 3.978159 -4.626748
 H 4.362484 5.061051 -4.998111
 H 1.858520 -1.362163 -0.593647
 H 0.856440 -0.165236 -0.844902
 H -4.915289 -4.418656 2.223956
 H -6.403850 -3.955365 1.714243
 H 2.960627 1.487420 2.529053
 H 2.801776 2.976997 2.177019
K_POINTS
 1
0.0 0.0 0.0 1.0