
&control
    calculation='scf'
    pseudo_dir = './',
    outdir='./outputs',
    disk_io='high'
/
&system
    ibrav= 1, celldm(1)=20.000000, nat=  192, ntyp= 2,
    ecutwfc = 30.0, nosym=.true., occupations='smearing',
    smearing='m-v', degauss=0.025
/
&electrons
    conv_thr =  1.0d-8,
    mixing_beta = 0.7
/
&ions
    pot_extrapolation='second-order'
    wfc_extrapolation='second-order'
    ion_temperature = 'andersen'
    tempw = 1000

/
ATOMIC_SPECIES
 H  1.01  H.blyp-hgh.UPF
 O  16.0  O.blyp-hgh.UPF
ATOMIC_POSITIONS bohr
 O -5.275275 -1.432120 -1.747600
 O 3.780035 -2.009538 5.402605
 O -5.757395 5.574022 -5.388953
 O -0.125596 3.911942 -1.403089
 O -4.773036 0.796813 3.984073
 O -0.230113 5.533625 5.272698
 O -0.161785 -5.423971 -3.367519
 O 2.532189 0.039103 3.584491
 O -2.851203 -5.321316 5.706962
 O 2.092190 -2.748045 2.081319
 O 2.601483 -6.143104 2.901788
 O -3.987650 -2.971333 4.509378
 O -4.431625 -5.782526 0.707219
 O -3.626139 -5.734135 -3.875794
 O 2.533707 -2.842028 -2.405899
 O -2.088984 2.450650 0.733871
 O -1.223741 -1.918674 2.024374
 O 0.247127 -4.185742 3.783014
 O 5.335897 -4.455415 -5.003450
 O 5.329822 5.018170 2.230704
 O 5.845130 -3.046784 3.261252
 O -3.233400 -2.773049 -3.902990
 O -0.901040 2.717916 -4.935504
 O 3.976502 2.373709 2.955279
 O 2.342304 1.487729 -3.183100
 O -4.757008 2.546727 -6.318595
 O 4.524462 -5.998568 -1.225901
 O 2.046442 -1.216525 -4.725627
 O -2.087228 0.069315 -4.860404
 O 0.987534 -0.325023 0.869344
 O 4.720636 -1.730859 -3.546191
 O 5.292589 0.164140 -0.230689
 O -0.136157 4.666756 2.093850
 O -4.813421 0.759406 -4.045495
 O 0.773278 -3.848812 -0.415711
 O 4.480626 3.950824 -4.586438
 O 3.283867 5.438645 5.825552
 O -5.400450 4.201868 -1.988310
 O -0.403330 0.936296 -1.828805
 O -3.120269 -3.674182 -0.895752
 O -2.737010 5.489649 3.252579
 O -1.663101 2.832712 4.345742
 O -2.523089 -0.456353 -0.745749
 O -1.505576 -2.014429 4.790064
 O 0.627483 1.917837 5.075584
 O -4.596566 3.236118 1.337149
 O 3.028086 4.077888 -0.729055
 O 2.708337 -5.944556 -3.729135
 O -2.451324 4.412735 -2.347467
 O 5.187876 0.639658 5.488531
 O -2.873797 0.330426 1.952976
 O -0.696963 -2.287555 -2.577407
 O 0.054676 -3.441680 -5.458836
 O 5.801884 -5.906942 4.234975
 O 4.883523 -3.235261 -0.047211
 O 4.578217 -0.734293 2.437942
 O 1.309455 4.326751 -4.311462
 O -0.840722 -5.884360 0.368409
 O -5.451753 -1.589885 -5.757451
 O -4.690843 1.233408 -0.768372
 O 5.128803 1.420731 -2.244585
 O 2.863765 -0.315602 -1.289470
 O -5.251135 -1.381524 1.358354
 O 1.613916 2.447104 1.401553
 H -5.302091 -1.744440 -0.808809
 H -4.641086 -0.681773 -1.605074
 H 4.102385 -2.817354 5.880354
 H 3.336043 -2.451338 4.645486
 H -6.598241 5.095108 -5.163617
 H -5.193567 4.862739 -5.751014
 H -0.180326 2.998135 -1.834245
 H 0.597954 4.398081 -1.853415
 H -5.694247 1.126337 4.119457
 H -4.321098 1.425024 4.613883
 H 0.148155 6.376775 4.919913
 H 0.228717 5.324269 6.108731
 H -0.518652 -5.361248 -2.463374
 H -0.962700 -5.356446 -3.922136
 H 3.059784 0.890554 3.526325
 H 1.641116 0.359556 3.840831
 H -3.206023 -5.331943 6.634791
 H -1.926489 -5.662302 5.793368
 H 1.899202 -1.901581 1.600503
 H 3.035580 -3.006227 2.096594
 H 3.266539 -6.617756 2.350823
 H 1.748081 -6.567709 2.645308
 H -3.448479 -3.806728 4.385366
 H -4.800479 -3.407301 4.102326
 H -4.505101 -6.678098 0.306104
 H -3.884112 -5.236461 0.090148
 H -4.219721 -4.993986 -3.643007
 H -3.876493 -6.436185 -3.241065
 H 2.668726 -1.937852 -1.971116
 H 1.737275 -3.239965 -1.967081
 H -1.167153 2.586856 1.025504
 H -2.388913 1.556784 1.084034
 H -0.969239 -0.998359 1.715207
 H -1.184694 -1.948340 3.022777
 H 0.785208 -4.641237 3.104931
 H -0.641127 -4.132234 3.380929
 H 6.226775 -4.504810 -4.607202
 H 5.275132 -3.466760 -5.002306
 H 5.627071 5.405758 3.128962
 H 6.185387 5.063814 1.751204
 H 5.411080 -2.184494 3.031831
 H 5.449830 -3.709287 2.654163
 H -2.277399 -2.591756 -3.961496
 H -3.615829 -2.872305 -4.792609
 H -0.488349 2.851142 -4.063203
 H -1.433265 1.867724 -4.895702
 H 4.848476 2.810419 2.979969
 H 3.445054 2.877524 2.299934
 H 2.522485 0.720158 -3.793716
 H 1.523464 1.889133 -3.537045
 H -5.003172 1.841811 -5.685102
 H -3.989853 2.968653 -5.885228
 H 4.008037 -5.187048 -1.039113
 H 5.388069 -5.775489 -0.824698
 H 2.753913 -1.462201 -5.380576
 H 1.355087 -0.758145 -5.238452
 H -1.631694 -0.230028 -5.673672
 H -3.056583 0.034926 -4.999613
 H 0.839937 0.521445 1.344644
 H 1.843990 -0.038863 0.465250
 H 4.068088 -2.301225 -3.071121
 H 5.484933 -1.617563 -2.938673
 H 5.570207 0.915654 -0.795575
 H 5.360954 -0.590070 -0.878986
 H -0.056406 4.119207 2.932106
 H -0.838154 5.316206 2.355253
 H -5.018589 0.465685 -3.129657
 H -5.762006 0.853319 -4.329508
 H 0.426549 -4.643441 0.062963
 H 1.443488 -3.538777 0.241398
 H 4.022783 4.348534 -5.382613
 H 4.756470 3.092232 -4.960128
 H 3.242739 5.548881 4.845600
 H 2.687364 6.155105 6.130923
 H -5.561372 3.629456 -1.208005
 H -4.373300 4.145963 -2.016914
 H 0.051441 0.245360 -2.340583
 H -0.471145 0.553956 -0.931948
 H -3.661483 -2.951345 -1.358408
 H -2.330664 -3.805011 -1.484440
 H -3.629194 5.723001 2.919471
 H -2.725674 5.795072 4.202651
 H -1.317377 2.398461 3.546855
 H -1.993760 3.712696 4.056003
 H -2.231792 -1.389285 -0.732905
 H -3.108984 -0.439709 0.047279
 H -2.454626 -2.283977 4.785383
 H -1.128812 -2.554714 5.533137
 H 1.157582 1.446357 5.747810
 H -0.143497 2.318875 5.554639
 H -4.908725 3.331529 2.258372
 H -3.657414 2.889716 1.360627
 H 3.532225 4.900749 -0.511070
 H 2.986896 4.166476 -1.704779
 H 3.600633 -5.538503 -3.769073
 H 2.215601 -5.537546 -2.988357
 H -2.494892 4.010766 -3.238327
 H -1.486524 4.258065 -2.053636
 H 5.748720 -0.191257 5.544385
 H 4.320961 0.282262 5.197033
 H -2.304518 -0.492987 2.022060
 H -3.317309 0.299323 2.845510
 H 0.288811 -2.279005 -2.615016
 H -0.859221 -2.313982 -1.610762
 H -0.075314 -3.175008 -4.529583
 H 0.710777 -2.812547 -5.819978
 H 5.330066 -6.416946 4.940178
 H 6.416028 -5.406714 4.804732
 H 5.831221 -3.152537 -0.274905
 H 4.569175 -2.317325 -0.199663
 H 4.707104 0.214179 2.210319
 H 3.600260 -0.861522 2.407280
 H 1.186958 4.201386 -5.269266
 H 1.780084 5.203572 -4.114672
 H -1.286300 -6.708654 0.640844
 H -1.591524 -5.286394 0.179831
 H -4.884816 -2.021675 -6.439695
 H -4.980771 -0.936625 -5.195016
 H -4.688815 2.164526 -1.045778
 H -4.665333 1.257427 0.207031
 H 5.744764 2.181666 -2.252340
 H 4.332451 1.744372 -2.727121
 H 3.692805 0.197307 -1.078148
 H 2.314071 0.312224 -1.825140
 H -6.170209 -1.273068 1.681726
 H -4.669534 -1.465156 2.136647
 H 0.700893 2.655277 1.698523
 H 1.802217 3.040405 0.624525
K_POINTS
 1
0.0 0.0 0.0 1.0