
&control
    calculation='scf'
    pseudo_dir = './',
    outdir='./outputs',
    disk_io='high'
/
&system
    ibrav= 1, celldm(1)=20.000000, nat=  192, ntyp= 2,
    ecutwfc = 30.0, nosym=.true., occupations='smearing',
    smearing='m-v', degauss=0.025
/
&electrons
    conv_thr =  1.0d-8,
    mixing_beta = 0.7
/
&ions
    pot_extrapolation='second-order'
    wfc_extrapolation='second-order'
    ion_temperature = 'andersen'
    tempw = 1000

/
ATOMIC_SPECIES
 H  1.01  H.blyp-hgh.UPF
 O  16.0  O.blyp-hgh.UPF
ATOMIC_POSITIONS bohr
 O -5.272864 -1.409176 -1.802514
 O 3.714829 -2.004497 5.420151
 O -5.764908 5.613184 -5.373640
 O -0.103528 3.926932 -1.371392
 O -4.792403 0.824535 4.016643
 O -0.237995 5.568213 5.282227
 O -0.180325 -5.428013 -3.347625
 O 2.555906 0.017276 3.595923
 O -2.842318 -5.334786 5.728992
 O 2.131651 -2.724483 2.137164
 O 2.613280 -6.164517 2.900175
 O -3.979979 -3.006245 4.479141
 O -4.427724 -5.764168 0.699996
 O -3.630945 -5.737391 -3.910554
 O 2.587103 -2.865361 -2.446315
 O -2.132664 2.460480 0.614640
 O -1.243621 -1.979498 2.084789
 O 0.254793 -4.205567 3.787613
 O 5.316140 -4.487351 -5.011053
 O 5.282716 5.019287 2.237404
 O 5.825236 -3.083825 3.261458
 O -3.238992 -2.730678 -3.910379
 O -0.918480 2.734874 -4.932369
 O 4.000787 2.376402 2.976613
 O 2.349462 1.519016 -3.229628
 O -4.712720 2.500439 -6.350774
 O 4.536406 -5.994782 -1.213187
 O 2.058426 -1.180463 -4.764557
 O -2.093422 0.046343 -4.876403
 O 1.018032 -0.308302 0.898333
 O 4.712575 -1.728915 -3.506271
 O 5.310775 0.159366 -0.240537
 O -0.120174 4.674430 2.178039
 O -4.766291 0.763470 -4.053039
 O 0.797186 -3.866038 -0.417494
 O 4.452279 4.024177 -4.642464
 O 3.228094 5.444253 5.794623
 O -5.410633 4.292549 -1.978756
 O -0.394706 0.926901 -1.862329
 O -3.118053 -3.730573 -0.863699
 O -2.758620 5.481574 3.241489
 O -1.714054 2.851373 4.414531
 O -2.496119 -0.529761 -0.743226
 O -1.482004 -1.962769 4.776708
 O 0.633885 1.929060 5.117226
 O -4.559928 3.212624 1.321221
 O 3.068245 4.123938 -0.760556
 O 2.705123 -5.908933 -3.754439
 O -2.431239 4.373640 -2.370026
 O 5.109941 0.644637 5.524935
 O -2.832625 0.328447 1.963128
 O -0.688594 -2.255907 -2.626754
 O 0.056244 -3.467183 -5.465827
 O 5.810680 -5.891678 4.242379
 O 4.858320 -3.253053 -0.001016
 O 4.565842 -0.738134 2.416555
 O 1.337486 4.311243 -4.299264
 O -0.904613 -5.886296 0.335422
 O -5.435378 -1.640318 -5.775590
 O -4.712990 1.210998 -0.754904
 O 5.116125 1.433287 -2.209219
 O 2.848964 -0.323033 -1.335752
 O -5.233104 -1.415044 1.349834
 O 1.625477 2.404484 1.369261
 H -5.275825 -1.801268 -0.898089
 H -4.696167 -0.636217 -1.548742
 H 4.311355 -2.693975 5.806522
 H 3.396926 -2.488878 4.634357
 H -6.597681 5.130744 -5.169008
 H -5.117021 4.921891 -5.594933
 H -0.295359 3.166773 -1.945628
 H 0.626563 4.354449 -1.851139
 H -5.658501 1.245748 4.184767
 H -4.186016 1.396898 4.534644
 H 0.146161 6.390550 4.904886
 H 0.240259 5.452610 6.122612
 H -0.517746 -5.361353 -2.437990
 H -0.953646 -5.285558 -3.920496
 H 3.131312 0.807736 3.537134
 H 1.702203 0.413109 3.855145
 H -3.112879 -5.368398 6.673243
 H -1.938175 -5.727001 5.733175
 H 1.884632 -1.852897 1.753327
 H 3.093745 -2.849993 2.058594
 H 3.290708 -6.612721 2.353314
 H 1.799297 -6.659371 2.679978
 H -3.536053 -3.892781 4.649230
 H -4.904652 -3.372558 4.372958
 H -4.662662 -6.618295 0.290116
 H -3.859959 -5.309302 0.048395
 H -4.066296 -4.887068 -3.694194
 H -3.889624 -6.344707 -3.190616
 H 2.690389 -2.062368 -1.870310
 H 1.866225 -3.325306 -1.966528
 H -1.237168 2.513298 0.985060
 H -2.471495 1.676142 1.153791
 H -0.867033 -1.149846 1.827585
 H -1.254363 -2.003922 3.075219
 H 0.734723 -4.717473 3.112311
 H -0.678653 -4.168042 3.514744
 H 6.168068 -4.520100 -4.542341
 H 5.144775 -3.521259 -4.951563
 H 5.666663 5.541809 3.005055
 H 6.113179 5.130244 1.736056
 H 5.376630 -2.203247 3.193208
 H 5.259730 -3.648006 2.700251
 H -2.281982 -2.530004 -3.943698
 H -3.527796 -2.801552 -4.836392
 H -0.544162 2.900401 -4.053999
 H -1.365800 1.863555 -4.929561
 H 4.822889 2.903651 2.919900
 H 3.429969 2.710126 2.247574
 H 2.380963 0.641178 -3.697718
 H 1.522828 1.909766 -3.560327
 H -5.005420 1.829407 -5.727171
 H -3.968496 2.908576 -5.876588
 H 4.014010 -5.216426 -0.939939
 H 5.386249 -5.834963 -0.768073
 H 2.713238 -1.458493 -5.449620
 H 1.420166 -0.693729 -5.314332
 H -1.657565 -0.146385 -5.727306
 H -3.046208 -0.154424 -4.976193
 H 0.892833 0.476869 1.474003
 H 1.907092 -0.085453 0.510675
 H 4.133474 -2.360129 -3.044840
 H 5.537019 -1.654873 -2.994175
 H 5.581989 0.884219 -0.830190
 H 5.267845 -0.554978 -0.883871
 H 0.149005 4.321040 3.051253
 H -0.854907 5.253599 2.487196
 H -4.953454 0.414200 -3.161438
 H -5.650688 0.836463 -4.453965
 H 0.441823 -4.580790 0.163103
 H 1.428894 -3.386468 0.174207
 H 4.144758 4.419591 -5.497393
 H 4.794461 3.170417 -4.973486
 H 3.125314 5.579362 4.826624
 H 2.763056 6.171919 6.260641
 H -5.636842 3.701524 -1.235751
 H -4.490658 3.956871 -2.169129
 H 0.008859 0.223945 -2.393737
 H -0.327377 0.596896 -0.943969
 H -3.837074 -3.146691 -1.169169
 H -2.455307 -3.660165 -1.586840
 H -3.630172 5.738968 2.887822
 H -2.795047 5.886467 4.127659
 H -1.401794 2.487266 3.564919
 H -1.953480 3.757942 4.118866
 H -2.301219 -1.480103 -0.792075
 H -3.127823 -0.433353 -0.006962
 H -2.444320 -2.147449 4.788778
 H -1.150963 -2.444724 5.567214
 H 1.087138 1.473103 5.840433
 H -0.226518 2.198411 5.505778
 H -4.829222 3.184204 2.252469
 H -3.582402 3.034190 1.260432
 H 3.608977 4.927910 -0.595201
 H 3.033852 4.084896 -1.734945
 H 3.599864 -5.518870 -3.752883
 H 2.290509 -5.607593 -2.930631
 H -2.521969 4.052846 -3.279253
 H -1.488203 4.335724 -2.052695
 H 5.624654 -0.169934 5.665347
 H 4.286795 0.260952 5.156079
 H -2.377539 -0.556306 2.038910
 H -3.260156 0.457181 2.841669
 H 0.277704 -2.082644 -2.690813
 H -0.887004 -2.435094 -1.686418
 H -0.156892 -3.227392 -4.543122
 H 0.746766 -2.833376 -5.730681
 H 5.472935 -6.482633 4.952126
 H 6.426541 -5.366930 4.787095
 H 5.754808 -3.202260 -0.379953
 H 4.431193 -2.431277 -0.325485
 H 4.682340 0.232124 2.337409
 H 3.612062 -0.927464 2.361428
 H 1.250821 4.288693 -5.268602
 H 1.912418 5.117262 -4.162727
 H -1.271766 -6.738760 0.629567
 H -1.702282 -5.348596 0.185084
 H -4.725416 -1.970952 -6.375298
 H -5.057756 -0.999424 -5.144613
 H -4.691283 2.136980 -1.031740
 H -4.681511 1.258954 0.222991
 H 5.695673 2.215279 -2.245937
 H 4.337002 1.680909 -2.752163
 H 3.690591 0.145484 -1.074807
 H 2.328199 0.351012 -1.827122
 H -6.139779 -1.308622 1.698991
 H -4.666014 -1.490355 2.130314
 H 0.789913 2.642959 1.786404
 H 1.701399 2.996656 0.588278
K_POINTS
 1
0.0 0.0 0.0 1.0