
&control
    calculation='scf'
    pseudo_dir = './',
    outdir='./outputs',
    disk_io='high'
/
&system
    ibrav= 1, celldm(1)=20.000000, nat=  192, ntyp= 2,
    ecutwfc = 30.0, nosym=.true., occupations='smearing',
    smearing='m-v', degauss=0.025
/
&electrons
    conv_thr =  1.0d-8,
    mixing_beta = 0.7
/
&ions
    pot_extrapolation='second-order'
    wfc_extrapolation='second-order'
    ion_temperature = 'andersen'
    tempw = 1000

/
ATOMIC_SPECIES
 H  1.01  H.blyp-hgh.UPF
 O  16.0  O.blyp-hgh.UPF
ATOMIC_POSITIONS bohr
 O -5.222706 -1.369424 -1.910480
 O 3.591900 -2.072962 5.506763
 O -5.781294 5.707996 -5.369981
 O -0.020303 3.963234 -1.311862
 O -4.799903 0.895580 4.055933
 O -0.257380 5.721463 5.303460
 O -0.229223 -5.430445 -3.266642
 O 2.562051 0.017034 3.678284
 O -2.785961 -5.386431 5.796604
 O 2.276882 -2.651744 2.271041
 O 2.639762 -6.256371 2.905930
 O -4.012014 -3.228580 4.465128
 O -4.444024 -5.741445 0.671787
 O -3.625713 -5.679923 -3.998758
 O 2.690198 -2.954879 -2.475641
 O -2.241163 2.479151 0.336778
 O -1.326201 -2.119270 2.244224
 O 0.274279 -4.333044 3.854754
 O 5.220335 -4.524803 -5.025096
 O 5.212944 5.051566 2.248850
 O 5.722080 -3.182659 3.302189
 O -3.239161 -2.623374 -3.945342
 O -0.999685 2.766509 -4.941806
 O 4.079874 2.369161 3.001940
 O 2.374348 1.540197 -3.392899
 O -4.559114 2.439126 -6.423096
 O 4.571229 -5.961676 -1.151046
 O 2.053644 -1.040278 -4.927507
 O -2.062449 -0.011963 -4.960822
 O 1.106248 -0.296168 1.000653
 O 4.743372 -1.729293 -3.420454
 O 5.276089 0.062375 -0.174324
 O -0.043817 4.688271 2.519860
 O -4.643854 0.749057 -4.110085
 O 0.903674 -3.889859 -0.411148
 O 4.419004 4.228588 -4.841781
 O 3.048257 5.462470 5.705671
 O -5.405307 4.501253 -1.947969
 O -0.323495 0.944995 -1.980074
 O -3.110000 -3.867133 -0.827462
 O -2.836959 5.478055 3.238639
 O -1.894371 2.914487 4.569851
 O -2.421812 -0.765880 -0.745727
 O -1.433638 -1.775608 4.797839
 O 0.670404 1.909208 5.231553
 O -4.482452 3.176206 1.272892
 O 3.166917 4.241703 -0.860228
 O 2.728233 -5.780576 -3.826189
 O -2.486519 4.273725 -2.456391
 O 4.895263 0.648813 5.637254
 O -2.701659 0.331709 2.036686
 O -0.668636 -2.160238 -2.788867
 O 0.026677 -3.489997 -5.512531
 O 5.839207 -5.864102 4.323975
 O 4.753760 -3.287795 0.108372
 O 4.606319 -0.775938 2.334881
 O 1.414612 4.272208 -4.280877
 O -1.111539 -5.869114 0.225825
 O -5.370248 -1.789127 -5.840107
 O -4.776935 1.170978 -0.735195
 O 5.094366 1.579482 -2.267212
 O 2.784010 -0.346920 -1.402455
 O -5.153127 -1.512124 1.284622
 O 1.647505 2.308589 1.278730
 H -5.404364 -1.823645 -1.068268
 H -4.931705 -0.491963 -1.534393
 H 4.571091 -1.999246 5.482615
 H 3.328926 -2.396015 4.616804
 H -6.500173 5.172555 -4.942102
 H -5.005327 5.159227 -5.137565
 H -0.390697 3.199152 -1.804135
 H 0.762319 4.327224 -1.759526
 H -5.562152 1.375164 4.448356
 H -4.091913 1.401274 4.510941
 H 0.057080 6.552509 4.855097
 H 0.125710 5.762833 6.205093
 H -0.598880 -5.439797 -2.358790
 H -1.005484 -5.209728 -3.815994
 H 3.228143 0.711798 3.537565
 H 1.806805 0.555741 4.013221
 H -3.016521 -5.703147 6.701883
 H -1.909155 -5.805209 5.612080
 H 1.763940 -1.810974 2.295180
 H 3.100584 -2.447178 1.789155
 H 3.464745 -6.548364 2.452586
 H 1.968677 -6.895196 2.595747
 H -3.753867 -3.694318 5.288865
 H -4.858453 -2.793827 4.723537
 H -4.899967 -6.474146 0.217637
 H -3.877073 -5.394071 -0.050307
 H -3.435800 -4.729585 -3.794795
 H -3.801929 -6.121297 -3.143599
 H 2.673800 -2.133738 -1.927804
 H 2.344478 -3.751304 -2.059073
 H -1.316684 2.682570 0.558035
 H -2.569811 1.728475 0.899838
 H -0.383849 -1.911811 2.034166
 H -1.248761 -2.168093 3.226247
 H 0.592713 -4.663961 2.987726
 H -0.686880 -4.223605 3.694666
 H 5.989682 -4.803787 -4.484785
 H 4.824131 -3.733683 -4.605872
 H 5.400863 5.846578 2.803588
 H 5.644431 4.990994 1.387984
 H 5.424881 -2.296236 3.574417
 H 4.950443 -3.600854 2.882267
 H -2.341545 -2.254330 -3.724224
 H -3.325164 -2.650404 -4.915263
 H -0.639421 3.041898 -4.074354
 H -1.323985 1.870948 -4.724104
 H 4.527955 3.219504 2.739984
 H 3.427521 2.208966 2.281285
 H 2.096576 0.620957 -3.605609
 H 1.701255 2.221580 -3.621753
 H -4.978510 1.768292 -5.856355
 H -3.761835 2.708026 -5.926404
 H 4.138752 -5.234792 -0.635735
 H 5.418157 -6.051996 -0.672050
 H 2.740705 -1.466937 -5.494748
 H 1.522286 -0.492420 -5.533314
 H -1.926911 -0.076483 -5.927791
 H -2.917983 -0.451520 -4.769723
 H 1.281936 0.393815 1.671985
 H 1.845078 -0.216764 0.361162
 H 4.264591 -2.508837 -3.061512
 H 5.675469 -1.802243 -3.127663
 H 5.595247 0.815614 -0.715374
 H 5.364523 -0.638011 -0.826480
 H 0.547976 4.878367 3.265447
 H -0.941941 4.994009 2.766625
 H -4.799347 0.343418 -3.234358
 H -5.571672 0.678892 -4.422351
 H 0.430778 -4.442112 0.244642
 H 1.130337 -3.099823 0.130833
 H 4.079377 4.543332 -5.721834
 H 4.813876 3.348812 -4.982208
 H 2.738873 5.895647 4.872115
 H 3.135936 6.211357 6.337661
 H -5.926670 4.112279 -1.226425
 H -4.949057 3.792405 -2.424976
 H -0.360462 0.103244 -2.487003
 H -0.069708 0.680245 -1.063239
 H -4.053310 -3.803807 -0.547276
 H -3.127921 -3.504433 -1.736296
 H -3.449425 5.696338 2.503417
 H -2.998060 6.130216 3.950289
 H -1.673186 2.565579 3.689108
 H -1.980380 3.882954 4.510952
 H -2.631961 -1.719230 -0.738421
 H -3.086606 -0.442551 -0.107925
 H -2.409345 -1.834121 4.784737
 H -1.055668 -2.318927 5.533354
 H 0.960382 1.731700 6.145186
 H -0.301353 2.106477 5.237856
 H -4.418792 2.735360 2.144953
 H -3.608504 3.545558 1.052940
 H 3.780922 5.011534 -0.987901
 H 3.243196 3.789888 -1.725524
 H 3.682665 -5.547995 -3.788409
 H 2.359391 -5.732977 -2.927691
 H -2.175664 4.200427 -3.389902
 H -1.648350 4.636863 -2.095187
 H 5.333748 -0.100814 6.048725
 H 4.160977 0.253834 5.132810
 H -2.609701 -0.626984 2.143063
 H -3.400980 0.640516 2.652390
 H 0.209551 -1.736590 -2.828484
 H -0.487004 -2.746231 -2.011068
 H -0.235520 -3.514051 -4.556551
 H 0.904134 -3.062547 -5.370948
 H 5.865218 -6.556416 5.015733
 H 6.458151 -5.164893 4.607363
 H 5.520673 -3.407124 -0.483299
 H 4.078790 -2.986284 -0.551566
 H 4.676282 0.171839 2.556243
 H 3.640842 -0.857409 2.449339
 H 1.446144 4.134840 -5.243892
 H 2.235194 4.734869 -4.057065
 H -1.098341 -6.825497 0.428700
 H -2.014001 -5.507075 0.285515
 H -4.514948 -1.656153 -6.303654
 H -5.276391 -1.316995 -4.985839
 H -4.297595 1.997075 -0.966099
 H -4.862531 1.238152 0.238902
 H 5.447140 2.475866 -2.426486
 H 4.225484 1.531302 -2.736016
 H 3.602951 -0.065902 -0.899748
 H 2.459169 0.493444 -1.797348
 H -6.082175 -1.336152 1.561287
 H -4.668918 -1.726529 2.097956
 H 1.207163 2.837505 1.983154
 H 1.500994 2.822888 0.463207
K_POINTS
 1
0.0 0.0 0.0 1.0