
&control
    calculation='scf'
    pseudo_dir = './',
    outdir='./outputs',
    disk_io='high'
/
&system
    ibrav= 1, celldm(1)=20.000000, nat=  192, ntyp= 2,
    ecutwfc = 30.0, nosym=.true., occupations='smearing',
    smearing='m-v', degauss=0.025
/
&electrons
    conv_thr =  1.0d-8,
    mixing_beta = 0.7
/
&ions
    pot_extrapolation='second-order'
    wfc_extrapolation='second-order'
    ion_temperature = 'andersen'
    tempw = 1000

/
ATOMIC_SPECIES
 H  1.01  H.blyp-hgh.UPF
 O  16.0  O.blyp-hgh.UPF
ATOMIC_POSITIONS bohr
 O -5.215004 -1.365228 -1.919884
 O 3.585172 -2.084568 5.518778
 O -5.782824 5.712780 -5.369987
 O -0.010564 3.969083 -1.302756
 O -4.797475 0.901900 4.053152
 O -0.259750 5.745057 5.306262
 O -0.236196 -5.429623 -3.253578
 O 2.556287 0.024208 3.692446
 O -2.776854 -5.393992 5.805452
 O 2.297088 -2.641706 2.285834
 O 2.642414 -6.267987 2.908166
 O -4.018027 -3.253943 4.472871
 O -4.448872 -5.741203 0.666522
 O -3.621790 -5.665085 -4.007542
 O 2.703346 -2.968738 -2.475186
 O -2.251054 2.485207 0.306433
 O -1.332951 -2.132906 2.262533
 O 0.275617 -4.355530 3.865098
 O 5.202493 -4.527833 -5.025494
 O 5.200284 5.056462 2.248902
 O 5.709556 -3.194483 3.312879
 O -3.235329 -2.611671 -3.948786
 O -1.012340 2.767379 -4.939334
 O 4.089851 2.366449 3.000136
 O 2.381025 1.540722 -3.411042
 O -4.538531 2.440041 -6.427635
 O 4.577136 -5.953903 -1.140947
 O 2.048157 -1.021418 -4.948326
 O -2.054028 -0.019508 -4.975757
 O 1.115672 -0.302688 1.014685
 O 4.753864 -1.730066 -3.413509
 O 5.263409 0.046143 -0.163920
 O -0.032379 4.687941 2.561550
 O -4.633739 0.743274 -4.118785
 O 0.918493 -3.888447 -0.408596
 O 4.419813 4.253836 -4.864416
 O 3.023636 5.466955 5.696460
 O -5.407189 4.528965 -1.944756
 O -0.309471 0.950858 -1.997066
 O -3.113800 -3.880493 -0.829900
 O -2.846636 5.478758 3.237478
 O -1.918289 2.918328 4.588331
 O -2.414429 -0.798560 -0.746504
 O -1.426505 -1.747097 4.806233
 O 0.678070 1.900957 5.241837
 O -4.481020 3.175334 1.268788
 O 3.178105 4.253072 -0.875909
 O 2.734838 -5.764153 -3.835966
 O -2.495240 4.263192 -2.473815
 O 4.871331 0.651182 5.651566
 O -2.685671 0.338027 2.046436
 O -0.663666 -2.151571 -2.804439
 O 0.023271 -3.486503 -5.516241
 O 5.841898 -5.862622 4.334387
 O 4.736216 -3.291390 0.116155
 O 4.613117 -0.779205 2.326716
 O 1.424024 4.264725 -4.279067
 O -1.133657 -5.864454 0.210314
 O -5.360161 -1.804975 -5.847238
 O -4.784194 1.171348 -0.735151
 O 5.092449 1.604862 -2.285780
 O 2.775996 -0.348303 -1.401674
 O -5.141664 -1.523710 1.273246
 O 1.648094 2.301729 1.271569
 H -5.420650 -1.814757 -1.079163
 H -4.962366 -0.482065 -1.535848
 H 4.553352 -1.923046 5.442676
 H 3.303602 -2.378675 4.623370
 H -6.497552 5.193230 -4.915853
 H -4.989181 5.210160 -5.095811
 H -0.372578 3.166571 -1.765101
 H 0.784345 4.316173 -1.754302
 H -5.555525 1.369156 4.471519
 H -4.100640 1.413396 4.533858
 H 0.042610 6.584472 4.850322
 H 0.106007 5.791904 6.215382
 H -0.608768 -5.455987 -2.346119
 H -1.016559 -5.218212 -3.801639
 H 3.227452 0.726115 3.544998
 H 1.812068 0.569468 4.051994
 H -3.023496 -5.758554 6.693732
 H -1.894646 -5.803761 5.609075
 H 1.753547 -1.821177 2.354657
 H 3.085054 -2.413817 1.745664
 H 3.486438 -6.551191 2.476322
 H 1.996310 -6.916798 2.552544
 H -3.776160 -3.679928 5.327285
 H -4.829638 -2.743823 4.720707
 H -4.911484 -6.475241 0.214155
 H -3.873741 -5.397893 -0.057815
 H -3.360173 -4.731866 -3.804484
 H -3.777143 -6.101799 -3.144739
 H 2.641890 -2.127871 -1.957289
 H 2.388846 -3.783534 -2.056792
 H -1.319504 2.707696 0.485488
 H -2.549269 1.700345 0.839592
 H -0.354882 -2.026560 2.026570
 H -1.253370 -2.191645 3.241924
 H 0.583538 -4.633441 2.973967
 H -0.682005 -4.218605 3.701585
 H 5.965208 -4.840615 -4.493559
 H 4.813582 -3.757737 -4.555382
 H 5.402862 5.854808 2.779690
 H 5.586280 4.974727 1.366166
 H 5.424408 -2.301777 3.583254
 H 4.921217 -3.601036 2.908675
 H -2.358079 -2.220850 -3.688888
 H -3.301086 -2.648451 -4.921168
 H -0.632870 3.071931 -4.089978
 H -1.344063 1.871979 -4.697856
 H 4.473069 3.245256 2.727775
 H 3.431423 2.175171 2.290456
 H 2.059593 0.635977 -3.641960
 H 1.738545 2.257503 -3.633637
 H -4.966519 1.761958 -5.868618
 H -3.724668 2.680342 -5.938464
 H 4.160334 -5.236396 -0.596776
 H 5.428853 -6.077067 -0.672903
 H 2.751616 -1.462532 -5.492662
 H 1.531385 -0.472951 -5.568612
 H -1.962842 -0.082603 -5.949955
 H -2.899700 -0.450132 -4.726320
 H 1.349058 0.396415 1.657562
 H 1.811812 -0.221738 0.337194
 H 4.260906 -2.518857 -3.070004
 H 5.692328 -1.816114 -3.131766
 H 5.587279 0.814174 -0.682691
 H 5.406955 -0.674716 -0.811601
 H 0.547904 4.939815 3.317635
 H -0.941486 4.960096 2.811414
 H -4.769047 0.344715 -3.233190
 H -5.579018 0.663516 -4.391906
 H 0.418771 -4.438967 0.229421
 H 1.082951 -3.087274 0.132195
 H 4.049536 4.526549 -5.749946
 H 4.796521 3.366300 -5.004146
 H 2.717181 5.938766 4.882769
 H 3.176788 6.218045 6.315908
 H -5.947042 4.140640 -1.232355
 H -4.998457 3.781893 -2.421433
 H -0.439880 0.095775 -2.476724
 H -0.059618 0.678120 -1.083866
 H -4.039838 -3.872470 -0.452322
 H -3.219949 -3.511375 -1.736021
 H -3.407853 5.688235 2.459109
 H -3.037104 6.159705 3.930819
 H -1.710929 2.585451 3.698579
 H -1.984986 3.890176 4.555914
 H -2.666838 -1.741910 -0.716700
 H -3.068349 -0.430696 -0.115297
 H -2.406872 -1.834608 4.796097
 H -1.051324 -2.323793 5.523990
 H 0.931440 1.786522 6.183943
 H -0.291847 2.125431 5.212180
 H -4.356286 2.699762 2.120317
 H -3.617156 3.575198 1.036419
 H 3.782921 5.029516 -1.035142
 H 3.266439 3.744310 -1.710004
 H 3.696002 -5.553809 -3.795587
 H 2.356813 -5.746566 -2.937573
 H -2.136941 4.219606 -3.389022
 H -1.691029 4.673544 -2.081406
 H 5.303406 -0.102742 6.096461
 H 4.139714 0.250996 5.145951
 H -2.612884 -0.615388 2.168743
 H -3.441701 0.602285 2.626556
 H 0.203691 -1.710213 -2.869893
 H -0.428071 -2.774614 -2.073953
 H -0.246962 -3.559352 -4.566608
 H 0.918459 -3.103837 -5.345459
 H 5.924429 -6.546325 5.035170
 H 6.449935 -5.138909 4.574209
 H 5.501631 -3.436133 -0.472399
 H 4.042221 -3.069044 -0.557857
 H 4.725120 0.164697 2.557218
 H 3.650522 -0.855803 2.474438
 H 1.473106 4.094094 -5.236060
 H 2.254635 4.690054 -4.038746
 H -1.083415 -6.823479 0.396189
 H -2.049348 -5.541288 0.309486
 H -4.515561 -1.602480 -6.313289
 H -5.309948 -1.371608 -4.967310
 H -4.218105 1.951932 -0.953159
 H -4.891662 1.228737 0.235448
 H 5.402279 2.514582 -2.462103
 H 4.210487 1.520566 -2.728266
 H 3.581663 -0.100158 -0.878807
 H 2.477009 0.504573 -1.792582
 H -6.075775 -1.337225 1.529885
 H -4.672701 -1.774763 2.091735
 H 1.270041 2.869685 1.993421
 H 1.491983 2.802751 0.442936
K_POINTS
 1
0.0 0.0 0.0 1.0