
&control
    calculation='scf'
    pseudo_dir = './',
    outdir='./outputs',
    disk_io='high'
/
&system
    ibrav= 1, celldm(1)=20.000000, nat=  192, ntyp= 2,
    ecutwfc = 30.0, nosym=.true., occupations='smearing',
    smearing='m-v', degauss=0.025
/
&electrons
    conv_thr =  1.0d-8,
    mixing_beta = 0.7
/
&ions
    pot_extrapolation='second-order'
    wfc_extrapolation='second-order'
    ion_temperature = 'andersen'
    tempw = 1000

/
ATOMIC_SPECIES
 H  1.01  H.blyp-hgh.UPF
 O  16.0  O.blyp-hgh.UPF
ATOMIC_POSITIONS bohr
 O -5.192554 -1.350599 -1.944407
 O 3.572841 -2.125868 5.555022
 O -5.783152 5.720545 -5.365412
 O 0.017657 3.984150 -1.269045
 O -4.783295 0.924436 4.040769
 O -0.271357 5.830404 5.316108
 O -0.265000 -5.424545 -3.203603
 O 2.531889 0.066693 3.746410
 O -2.744686 -5.423100 5.836438
 O 2.368323 -2.612276 2.336501
 O 2.647328 -6.311656 2.909482
 O -4.038993 -3.324976 4.510795
 O -4.467106 -5.744038 0.643895
 O -3.601343 -5.606505 -4.029241
 O 2.757283 -3.016065 -2.478547
 O -2.282826 2.511189 0.200651
 O -1.332709 -2.187645 2.313371
 O 0.273493 -4.436157 3.891883
 O 5.133765 -4.535728 -5.017701
 O 5.138909 5.061348 2.246855
 O 5.669110 -3.235703 3.354364
 O -3.222064 -2.576404 -3.952056
 O -1.058218 2.765810 -4.921981
 O 4.120694 2.356540 2.984032
 O 2.408553 1.541458 -3.467473
 O -4.466933 2.452734 -6.431627
 O 4.602555 -5.918839 -1.101431
 O 2.022546 -0.955311 -5.011691
 O -2.018863 -0.043414 -5.027691
 O 1.147445 -0.332202 1.063842
 O 4.799129 -1.736619 -3.396487
 O 5.214156 -0.016253 -0.135479
 O 0.014753 4.686972 2.704685
 O -4.619750 0.714447 -4.142555
 O 0.965660 -3.879290 -0.393852
 O 4.423746 4.331816 -4.940827
 O 2.936775 5.497308 5.670451
 O -5.419528 4.619746 -1.933151
 O -0.256885 0.964040 -2.059501
 O -3.145279 -3.923452 -0.840202
 O -2.876915 5.486075 3.233758
 O -1.997518 2.920791 4.654993
 O -2.396304 -0.911542 -0.746141
 O -1.405291 -1.650564 4.848670
 O 0.707169 1.866189 5.278080
 O -4.488040 3.177424 1.263177
 O 3.215252 4.284877 -0.937443
 O 2.759020 -5.709905 -3.871032
 O -2.515057 4.238155 -2.540405
 O 4.800201 0.657457 5.704798
 O -2.648892 0.371644 2.088776
 O -0.635504 -2.128307 -2.848420
 O 0.016536 -3.471732 -5.521534
 O 5.850106 -5.862597 4.366028
 O 4.667213 -3.306565 0.130111
 O 4.638214 -0.785490 2.308058
 O 1.445723 4.223837 -4.268541
 O -1.203114 -5.846325 0.153876
 O -5.325955 -1.855831 -5.874913
 O -4.800688 1.180678 -0.744077
 O 5.084888 1.696579 -2.356216
 O 2.742478 -0.352324 -1.388733
 O -5.099612 -1.562148 1.230667
 O 1.649818 2.289755 1.257246
 H -5.441110 -1.805723 -1.107987
 H -5.036382 -0.442260 -1.543112
 H 4.436646 -1.729600 5.334116
 H 3.197823 -2.312812 4.671477
 H -6.520189 5.270627 -4.883590
 H -4.940813 5.416655 -4.987066
 H -0.236490 3.107854 -1.616762
 H 0.835726 4.227414 -1.741827
 H -5.581964 1.291301 4.472920
 H -4.137484 1.434066 4.591825
 H 0.012812 6.679471 4.866329
 H 0.061978 5.891659 6.227775
 H -0.626973 -5.512467 -2.299379
 H -1.052369 -5.284065 -3.759433
 H 3.191194 0.780806 3.590215
 H 1.816275 0.586101 4.202322
 H -3.052622 -5.919600 6.622651
 H -1.844682 -5.796514 5.627551
 H 1.777038 -1.851117 2.504206
 H 2.964673 -2.311552 1.616309
 H 3.551555 -6.570755 2.590741
 H 2.107846 -6.941888 2.395282
 H -3.835679 -3.695604 5.391789
 H -4.728272 -2.661425 4.650626
 H -4.916621 -6.499192 0.223436
 H -3.866008 -5.462682 -0.075640
 H -3.147755 -4.754796 -3.848881
 H -3.672227 -6.058274 -3.166022
 H 2.498004 -2.152967 -2.039026
 H 2.464162 -3.807269 -1.990985
 H -1.335801 2.727958 0.252333
 H -2.367338 1.622071 0.643271
 H -0.452800 -2.374670 1.992913
 H -1.279259 -2.231121 3.314348
 H 0.601201 -4.523019 2.972238
 H -0.657657 -4.178059 3.737085
 H 5.886933 -4.970901 -4.568792
 H 4.819793 -3.830912 -4.423717
 H 5.534641 5.884342 2.730888
 H 5.430696 4.972987 1.328123
 H 5.406167 -2.312548 3.542144
 H 4.832745 -3.597676 3.009027
 H -2.408298 -2.136293 -3.617467
 H -3.178885 -2.649474 -4.918567
 H -0.584468 3.170918 -4.169296
 H -1.422490 1.893948 -4.632667
 H 4.300699 3.293392 2.734003
 H 3.453642 2.115498 2.305987
 H 1.946718 0.742720 -3.817364
 H 1.875894 2.341536 -3.681777
 H -4.889348 1.770189 -5.896446
 H -3.605616 2.577478 -5.992862
 H 4.245678 -5.264311 -0.467946
 H 5.460064 -6.148716 -0.711189
 H 2.755401 -1.406721 -5.497487
 H 1.581215 -0.444706 -5.713790
 H -2.088305 -0.131972 -5.997964
 H -2.830262 -0.386158 -4.605346
 H 1.537350 0.414481 1.578501
 H 1.695517 -0.260272 0.219260
 H 4.241277 -2.492622 -3.100662
 H 5.719378 -1.858440 -3.110661
 H 5.531743 0.799481 -0.594500
 H 5.540195 -0.733951 -0.716598
 H 0.439362 5.102173 3.486493
 H -0.928578 4.865058 2.968708
 H -4.591795 0.375357 -3.221082
 H -5.581286 0.650726 -4.298426
 H 0.359594 -4.470095 0.122878
 H 0.948559 -3.045041 0.125222
 H 3.954138 4.470536 -5.818284
 H 4.723766 3.411942 -5.085570
 H 2.690324 6.008947 4.868159
 H 3.298606 6.211859 6.240042
 H -6.002935 4.207816 -1.263515
 H -5.131643 3.791524 -2.372429
 H -0.748842 0.159388 -2.380103
 H -0.061066 0.661120 -1.154181
 H -3.882723 -3.993516 -0.193174
 H -3.534821 -3.562019 -1.683493
 H -3.275193 5.678471 2.360498
 H -3.178760 6.211033 3.823234
 H -1.851031 2.696879 3.712804
 H -1.992003 3.900336 4.666478
 H -2.746429 -1.817502 -0.638198
 H -2.965160 -0.378276 -0.153517
 H -2.361335 -1.893074 4.835766
 H -1.049155 -2.323581 5.483251
 H 0.782222 1.998887 6.247161
 H -0.212644 2.213691 5.153260
 H -4.168846 2.640440 2.016319
 H -3.644743 3.585418 0.980928
 H 3.744529 5.084880 -1.179010
 H 3.341388 3.596668 -1.617890
 H 3.720822 -5.566475 -3.800434
 H 2.369199 -5.788525 -2.989694
 H -2.075441 4.250514 -3.412081
 H -1.877203 4.752085 -1.976068
 H 5.169692 -0.077003 6.229853
 H 4.051785 0.237059 5.216845
 H -2.515877 -0.621262 2.210863
 H -3.549140 0.462601 2.507769
 H 0.176820 -1.618790 -3.084370
 H -0.279790 -2.863784 -2.293117
 H -0.305627 -3.699562 -4.632567
 H 0.942244 -3.235999 -5.321913
 H 6.144437 -6.456585 5.101495
 H 6.396968 -5.053037 4.458566
 H 5.456001 -3.528182 -0.397280
 H 3.944241 -3.334435 -0.540030
 H 4.939435 0.130668 2.516055
 H 3.694716 -0.865530 2.572724
 H 1.588132 3.982659 -5.210854
 H 2.347004 4.596465 -4.022919
 H -1.043693 -6.797601 0.296000
 H -2.127696 -5.685985 0.405846
 H -4.578556 -1.372286 -6.285132
 H -5.384255 -1.576353 -4.941946
 H -3.973657 1.723063 -0.866873
 H -4.982461 1.212670 0.216908
 H 5.227071 2.631586 -2.593210
 H 4.180221 1.502823 -2.713303
 H 3.559329 -0.215357 -0.811163
 H 2.531043 0.517074 -1.801729
 H -6.035404 -1.353396 1.437865
 H -4.734278 -1.958797 2.041664
 H 1.473128 2.955940 1.945049
 H 1.476081 2.744970 0.411415
K_POINTS
 1
0.0 0.0 0.0 1.0