
&control
    calculation='scf'
    pseudo_dir = './',
    outdir='./outputs',
    disk_io='high'
/
&system
    ibrav= 1, celldm(1)=20.000000, nat=  192, ntyp= 2,
    ecutwfc = 30.0, nosym=.true., occupations='smearing',
    smearing='m-v', degauss=0.025
/
&electrons
    conv_thr =  1.0d-8,
    mixing_beta = 0.7
/
&ions
    pot_extrapolation='second-order'
    wfc_extrapolation='second-order'
    ion_temperature = 'andersen'
    tempw = 1000

/
ATOMIC_SPECIES
 H  1.01  H.blyp-hgh.UPF
 O  16.0  O.blyp-hgh.UPF
ATOMIC_POSITIONS bohr
 O -5.186429 -1.344501 -1.948725
 O 3.571151 -2.141670 5.566834
 O -5.781569 5.723021 -5.363195
 O 0.027943 3.988907 -1.254740
 O -4.776296 0.931781 4.035043
 O -0.277955 5.863358 5.319868
 O -0.276892 -5.421799 -3.183536
 O 2.521650 0.089264 3.769369
 O -2.731990 -5.434544 5.846713
 O 2.396194 -2.603487 2.355598
 O 2.648761 -6.329271 2.906898
 O -4.043223 -3.347898 4.525680
 O -4.474306 -5.746823 0.635257
 O -3.591216 -5.583538 -4.034090
 O 2.779154 -3.032683 -2.479329
 O -2.292667 2.519985 0.160910
 O -1.333519 -2.211875 2.332192
 O 0.270326 -4.465513 3.898315
 O 5.105413 -4.538727 -5.011841
 O 5.112801 5.065805 2.248398
 O 5.653918 -3.250623 3.371088
 O -3.218703 -2.565362 -3.949590
 O -1.076649 2.764480 -4.913990
 O 4.130209 2.352181 2.974491
 O 2.419820 1.541343 -3.486929
 O -4.439164 2.461686 -6.429985
 O 4.613273 -5.903840 -1.086723
 O 2.010340 -0.929394 -5.032699
 O -2.002769 -0.050518 -5.045953
 O 1.163058 -0.343892 1.078637
 O 4.818117 -1.738858 -3.394380
 O 5.194530 -0.040001 -0.127920
 O 0.031322 4.688162 2.760237
 O -4.619459 0.701212 -4.148439
 O 0.980845 -3.875333 -0.385387
 O 4.423814 4.355294 -4.971026
 O 2.904205 5.513802 5.663237
 O -5.427211 4.649414 -1.927810
 O -0.238220 0.964727 -2.084660
 O -3.161719 -3.937919 -0.846973
 O -2.887130 5.490273 3.231555
 O -2.024973 2.919717 4.678845
 O -2.391006 -0.952790 -0.745473
 O -1.400402 -1.617288 4.869754
 O 0.717999 1.852315 5.293874
 O -4.493190 3.180367 1.264475
 O 3.226985 4.293256 -0.961453
 O 2.767305 -5.691098 -3.885694
 O -2.519756 4.234066 -2.564523
 O 4.776086 0.658081 5.725209
 O -2.642515 0.380738 2.108492
 O -0.620125 -2.120551 -2.862859
 O 0.014706 -3.466680 -5.524096
 O 5.854574 -5.864119 4.376605
 O 4.638493 -3.314113 0.132375
 O 4.649469 -0.786506 2.304885
 O 1.456560 4.204600 -4.263205
 O -1.227015 -5.839478 0.131035
 O -5.313770 -1.873943 -5.887641
 O -4.802243 1.186006 -0.750997
 O 5.080703 1.732379 -2.384298
 O 2.728426 -0.353733 -1.378832
 O -5.082576 -1.576341 1.213226
 O 1.651805 2.287916 1.253779
 H -5.428592 -1.811347 -1.125245
 H -5.050536 -0.431059 -1.551379
 H 4.387319 -1.679963 5.306093
 H 3.146148 -2.290147 4.693134
 H -6.530497 5.289794 -4.893340
 H -4.929698 5.497098 -4.950421
 H -0.178481 3.088087 -1.568528
 H 0.852379 4.186937 -1.733840
 H -5.613372 1.244054 4.444069
 H -4.151194 1.439159 4.601926
 H 0.012934 6.708807 4.879611
 H 0.061780 5.927103 6.232358
 H -0.631931 -5.531984 -2.277979
 H -1.068702 -5.323507 -3.745474
 H 3.165384 0.801680 3.613349
 H 1.813822 0.579863 4.259339
 H -3.064007 -5.967673 6.589515
 H -1.831439 -5.796458 5.643557
 H 1.798002 -1.853101 2.540665
 H 2.897766 -2.280572 1.578677
 H 3.575267 -6.577125 2.647948
 H 2.139709 -6.938188 2.339004
 H -3.859068 -3.722157 5.400602
 H -4.709505 -2.650986 4.620547
 H -4.910847 -6.520704 0.234165
 H -3.862297 -5.506031 -0.093003
 H -3.087768 -4.757217 -3.869603
 H -3.627333 -6.052527 -3.176831
 H 2.446566 -2.191949 -2.068931
 H 2.462094 -3.782159 -1.956328
 H -1.339425 2.722213 0.164506
 H -2.276861 1.608360 0.581057
 H -0.497073 -2.487497 1.970535
 H -1.281015 -2.222671 3.325133
 H 0.630150 -4.487651 2.987774
 H -0.649240 -4.157036 3.755741
 H 5.865910 -5.021832 -4.614406
 H 4.832348 -3.845909 -4.387442
 H 5.600383 5.847084 2.709806
 H 5.386195 4.985763 1.322442
 H 5.401143 -2.313249 3.503960
 H 4.803212 -3.602174 3.046761
 H -2.410992 -2.117118 -3.606574
 H -3.118882 -2.649234 -4.915065
 H -0.560822 3.194471 -4.202092
 H -1.444147 1.913930 -4.611336
 H 4.255229 3.306833 2.756938
 H 3.462915 2.105162 2.301284
 H 1.919558 0.794338 -3.892766
 H 1.926708 2.367802 -3.701976
 H -4.858033 1.772083 -5.889194
 H -3.557800 2.541675 -6.016892
 H 4.276199 -5.273829 -0.410574
 H 5.479293 -6.171698 -0.734873
 H 2.750112 -1.378365 -5.502716
 H 1.598608 -0.443700 -5.775022
 H -2.135021 -0.160692 -6.007644
 H -2.809409 -0.346027 -4.579342
 H 1.581938 0.416258 1.541491
 H 1.631722 -0.290128 0.189001
 H 4.232011 -2.466688 -3.104653
 H 5.728882 -1.875887 -3.083015
 H 5.496634 0.780472 -0.572581
 H 5.579235 -0.729009 -0.670049
 H 0.387835 5.143888 3.545401
 H -0.910697 4.829244 3.008161
 H -4.506311 0.397446 -3.224280
 H -5.584188 0.655181 -4.263514
 H 0.341378 -4.484698 0.058576
 H 0.908267 -3.034456 0.116359
 H 3.923849 4.469649 -5.828469
 H 4.700779 3.424384 -5.106252
 H 2.691309 6.003969 4.835812
 H 3.336241 6.202189 6.215002
 H -6.023736 4.236144 -1.272135
 H -5.156261 3.819583 -2.352102
 H -0.866800 0.221369 -2.330591
 H -0.063401 0.654345 -1.164898
 H -3.806500 -3.985841 -0.119516
 H -3.646544 -3.594051 -1.629943
 H -3.234302 5.678797 2.340742
 H -3.230105 6.216448 3.779021
 H -1.908509 2.744993 3.721710
 H -1.995004 3.895590 4.701168
 H -2.763893 -1.843474 -0.606263
 H -2.915476 -0.366333 -0.170304
 H -2.337372 -1.924437 4.842987
 H -1.036274 -2.311568 5.472160
 H 0.722461 2.075994 6.250457
 H -0.177057 2.248392 5.124337
 H -4.119365 2.633102 1.981058
 H -3.659008 3.561880 0.949595
 H 3.723522 5.101602 -1.233387
 H 3.374635 3.551418 -1.575278
 H 3.732124 -5.565056 -3.796189
 H 2.378089 -5.802726 -3.005788
 H -2.065121 4.252590 -3.429176
 H -1.966888 4.749903 -1.943837
 H 5.110981 -0.056028 6.274524
 H 4.020909 0.241121 5.256850
 H -2.438331 -0.590018 2.199838
 H -3.567647 0.420437 2.453234
 H 0.150226 -1.597293 -3.180609
 H -0.238389 -2.884916 -2.377138
 H -0.333269 -3.742915 -4.653173
 H 0.950077 -3.276956 -5.328856
 H 6.225568 -6.404263 5.120079
 H 6.363633 -5.022180 4.413739
 H 5.443941 -3.557565 -0.360086
 H 3.917982 -3.416390 -0.528381
 H 5.009584 0.102023 2.487645
 H 3.726327 -0.859215 2.615381
 H 1.630819 3.956857 -5.196174
 H 2.349174 4.569097 -4.040304
 H -1.023595 -6.788403 0.265318
 H -2.144596 -5.741525 0.448063
 H -4.621926 -1.270862 -6.248087
 H -5.396118 -1.654711 -4.941507
 H -3.908387 1.617527 -0.818964
 H -5.008738 1.215986 0.206521
 H 5.159867 2.671825 -2.645043
 H 4.178318 1.498346 -2.716071
 H 3.554814 -0.254921 -0.803510
 H 2.552219 0.508940 -1.814683
 H -6.021809 -1.364471 1.412015
 H -4.772233 -2.035764 2.014648
 H 1.532749 2.990853 1.915685
 H 1.475162 2.730137 0.409582
K_POINTS
 1
0.0 0.0 0.0 1.0