
&control
    calculation='scf'
    pseudo_dir = './',
    outdir='./outputs',
    disk_io='high'
/
&system
    ibrav= 1, celldm(1)=20.000000, nat=  192, ntyp= 2,
    ecutwfc = 30.0, nosym=.true., occupations='smearing',
    smearing='m-v', degauss=0.025
/
&electrons
    conv_thr =  1.0d-8,
    mixing_beta = 0.7
/
&ions
    pot_extrapolation='second-order'
    wfc_extrapolation='second-order'
    ion_temperature = 'andersen'
    tempw = 1000

/
ATOMIC_SPECIES
 H  1.01  H.blyp-hgh.UPF
 O  16.0  O.blyp-hgh.UPF
ATOMIC_POSITIONS bohr
 O -5.175646 -1.325171 -1.953299
 O 3.567021 -2.184680 5.589029
 O -5.769083 5.736978 -5.361706
 O 0.060181 3.992509 -1.215157
 O -4.762575 0.941237 4.011037
 O -0.300833 5.950399 5.340526
 O -0.311975 -5.411699 -3.127024
 O 2.489824 0.155010 3.839696
 O -2.700252 -5.461992 5.868340
 O 2.470970 -2.579643 2.406365
 O 2.653054 -6.377169 2.894725
 O -4.041481 -3.402327 4.551903
 O -4.491058 -5.763293 0.607410
 O -3.558579 -5.524104 -4.037110
 O 2.835362 -3.076624 -2.475322
 O -2.299856 2.524993 0.056607
 O -1.349751 -2.284868 2.373379
 O 0.256790 -4.533961 3.906806
 O 5.026080 -4.551801 -4.989348
 O 5.045145 5.089115 2.255567
 O 5.608603 -3.285887 3.416734
 O -3.208532 -2.539168 -3.940720
 O -1.124626 2.773566 -4.896628
 O 4.149862 2.340519 2.941216
 O 2.448254 1.543574 -3.538200
 O -4.361347 2.489147 -6.412343
 O 4.644117 -5.858619 -1.044817
 O 1.969181 -0.851579 -5.091081
 O -1.955566 -0.063851 -5.089993
 O 1.210100 -0.380438 1.105704
 O 4.877942 -1.739548 -3.402938
 O 5.134817 -0.093572 -0.105149
 O 0.073008 4.694194 2.913161
 O -4.620902 0.663794 -4.162749
 O 1.018860 -3.865366 -0.360537
 O 4.418563 4.397566 -5.052944
 O 2.816906 5.567028 5.648807
 O -5.459647 4.723087 -1.906008
 O -0.204023 0.947754 -2.142524
 O -3.208894 -3.973948 -0.866464
 O -2.910057 5.501252 3.220421
 O -2.088923 2.916734 4.734262
 O -2.372095 -1.057394 -0.747499
 O -1.399094 -1.542760 4.935811
 O 0.737530 1.825091 5.346869
 O -4.511149 3.191471 1.276962
 O 3.246994 4.306943 -1.022548
 O 2.787602 -5.645410 -3.925279
 O -2.546432 4.225300 -2.632171
 O 4.715620 0.663023 5.778137
 O -2.632082 0.404301 2.158798
 O -0.575150 -2.097337 -2.901847
 O 0.006723 -3.457542 -5.535058
 O 5.877817 -5.868953 4.403035
 O 4.556901 -3.339755 0.138718
 O 4.691045 -0.799525 2.301973
 O 1.489661 4.137929 -4.251526
 O -1.291467 -5.829624 0.067310
 O -5.276270 -1.909886 -5.928935
 O -4.792626 1.198712 -0.774926
 O 5.064110 1.836652 -2.462689
 O 2.684850 -0.360727 -1.338800
 O -5.037748 -1.617372 1.167596
 O 1.662359 2.290437 1.250668
 H -5.343308 -1.862976 -1.149403
 H -5.057238 -0.414335 -1.580822
 H 4.281732 -1.597508 5.261469
 H 2.994268 -2.241752 4.793894
 H -6.543852 5.275737 -4.948577
 H -4.950272 5.707628 -4.835015
 H -0.069440 3.030076 -1.463124
 H 0.918497 4.127517 -1.685859
 H -5.686068 1.089706 4.309431
 H -4.202946 1.490146 4.626269
 H 0.048483 6.790029 4.895610
 H 0.102266 5.998242 6.228346
 H -0.652194 -5.575616 -2.223563
 H -1.110319 -5.474087 -3.691040
 H 3.111394 0.920643 3.679826
 H 1.783247 0.560819 4.405964
 H -3.098105 -6.076340 6.519700
 H -1.786614 -5.825206 5.686729
 H 1.848358 -1.843575 2.621816
 H 2.713279 -2.239331 1.506782
 H 3.624324 -6.592214 2.811234
 H 2.193992 -6.902613 2.212239
 H -3.948483 -3.820705 5.440721
 H -4.697130 -2.684880 4.595710
 H -4.891644 -6.610555 0.304166
 H -3.876017 -5.625013 -0.163527
 H -2.989732 -4.731160 -3.930572
 H -3.493949 -6.049941 -3.213519
 H 2.348480 -2.279103 -2.159334
 H 2.388748 -3.723941 -1.868410
 H -1.356295 2.759027 -0.108343
 H -2.092027 1.647836 0.462104
 H -0.590611 -2.741949 1.931238
 H -1.211836 -2.146747 3.353006
 H 0.753207 -4.419164 3.068336
 H -0.610705 -4.102465 3.802991
 H 5.805636 -5.127250 -4.790251
 H 4.899836 -3.851784 -4.312471
 H 5.751822 5.626595 2.684461
 H 5.276875 5.018351 1.315938
 H 5.415604 -2.316193 3.358240
 H 4.739909 -3.646303 3.146842
 H -2.384132 -2.116123 -3.585043
 H -2.953362 -2.642426 -4.879982
 H -0.499867 3.191282 -4.277667
 H -1.478324 1.925783 -4.523572
 H 4.196866 3.323176 2.872092
 H 3.493529 2.091857 2.251768
 H 1.917184 0.915637 -4.087782
 H 2.070248 2.439153 -3.745004
 H -4.763975 1.805206 -5.843977
 H -3.428957 2.470392 -6.106045
 H 4.377463 -5.328105 -0.253236
 H 5.530576 -6.209429 -0.829659
 H 2.751394 -1.326795 -5.505412
 H 1.612379 -0.455299 -5.911073
 H -2.235085 -0.250955 -6.014179
 H -2.768866 -0.216936 -4.569666
 H 1.646432 0.425677 1.445434
 H 1.444715 -0.398298 0.151002
 H 4.200629 -2.390953 -3.071413
 H 5.739319 -1.920108 -2.960819
 H 5.378379 0.741816 -0.561856
 H 5.686387 -0.761856 -0.602985
 H 0.319997 5.223528 3.720671
 H -0.907283 4.722344 3.039059
 H -4.293459 0.474586 -3.260163
 H -5.605709 0.662358 -4.118559
 H 0.300098 -4.505475 -0.140063
 H 0.805319 -3.028191 0.086010
 H 3.845898 4.551580 -5.862350
 H 4.667896 3.459674 -5.129195
 H 2.719468 5.916598 4.717878
 H 3.399303 6.193825 6.130815
 H -6.095522 4.336415 -1.270176
 H -5.113383 3.905080 -2.344329
 H -1.104148 0.504201 -2.205699
 H -0.034240 0.664885 -1.223936
 H -3.611059 -3.860476 0.050963
 H -3.936619 -3.676833 -1.476085
 H -3.164614 5.675062 2.292199
 H -3.360811 6.238072 3.712388
 H -2.080616 2.837099 3.762206
 H -2.017684 3.891588 4.825178
 H -2.796549 -1.907518 -0.514614
 H -2.793207 -0.382039 -0.182564
 H -2.287288 -1.991363 4.833277
 H -0.927754 -2.233136 5.482763
 H 0.605016 2.220989 6.241353
 H -0.067361 2.290315 4.965526
 H -4.068350 2.617385 1.939410
 H -3.689251 3.480988 0.793930
 H 3.687351 5.115847 -1.394902
 H 3.501349 3.475196 -1.469100
 H 3.755452 -5.537772 -3.794815
 H 2.405612 -5.832960 -3.049725
 H -2.019919 4.264380 -3.448682
 H -2.151362 4.720063 -1.890920
 H 4.972673 -0.032238 6.444922
 H 3.907648 0.282377 5.366219
 H -2.168987 -0.476090 2.139122
 H -3.596528 0.309253 2.329935
 H 0.060126 -1.587220 -3.452602
 H -0.121466 -2.912710 -2.607527
 H -0.376306 -3.817255 -4.719873
 H 0.966162 -3.372377 -5.351991
 H 6.409672 -6.237703 5.151328
 H 6.221247 -4.949966 4.289931
 H 5.402679 -3.620729 -0.252266
 H 3.874053 -3.571447 -0.521677
 H 5.139346 0.059750 2.419576
 H 3.818567 -0.793524 2.757792
 H 1.696558 3.916117 -5.184086
 H 2.357335 4.577951 -4.063822
 H -0.933554 -6.737245 0.190632
 H -2.135791 -5.867963 0.568085
 H -4.819630 -1.035599 -6.087378
 H -5.411599 -1.877249 -4.953062
 H -3.818405 1.344202 -0.686705
 H -5.066563 1.250306 0.163037
 H 4.997458 2.756268 -2.785184
 H 4.188541 1.470295 -2.761045
 H 3.532304 -0.335558 -0.843596
 H 2.615842 0.461789 -1.875836
 H -5.985614 -1.403449 1.342780
 H -4.884435 -2.254614 1.911564
 H 1.639860 3.079349 1.846587
 H 1.481705 2.713449 0.377405
K_POINTS
 1
0.0 0.0 0.0 1.0