
&control
    calculation='scf'
    pseudo_dir = './',
    outdir='./outputs',
    disk_io='high'
/
&system
    ibrav= 1, celldm(1)=20.000000, nat=  192, ntyp= 2,
    ecutwfc = 30.0, nosym=.true., occupations='smearing',
    smearing='m-v', degauss=0.025
/
&electrons
    conv_thr =  1.0d-8,
    mixing_beta = 0.7
/
&ions
    pot_extrapolation='second-order'
    wfc_extrapolation='second-order'
    ion_temperature = 'andersen'
    tempw = 1000

/
ATOMIC_SPECIES
 H  1.01  H.blyp-hgh.UPF
 O  16.0  O.blyp-hgh.UPF
ATOMIC_POSITIONS bohr
 O -5.183424 -1.308550 -1.939957
 O 3.550042 -2.253762 5.613998
 O -5.722911 5.787655 -5.367938
 O 0.142585 3.953516 -1.151490
 O -4.744786 0.926029 3.933694
 O -0.328149 6.090867 5.429825
 O -0.392845 -5.391481 -3.026391
 O 2.445460 0.295704 3.989807
 O -2.657283 -5.508090 5.894260
 O 2.572704 -2.520289 2.484842
 O 2.652722 -6.438947 2.894773
 O -3.998431 -3.487253 4.568900
 O -4.513925 -5.844451 0.537671
 O -3.494418 -5.446065 -4.010143
 O 2.869716 -3.153143 -2.415929
 O -2.240482 2.492015 -0.136746
 O -1.403182 -2.417998 2.439068
 O 0.243514 -4.602200 3.887252
 O 4.877752 -4.586438 -4.930215
 O 4.964317 5.136470 2.273580
 O 5.519311 -3.326333 3.483714
 O -3.152270 -2.505769 -3.930741
 O -1.202662 2.816272 -4.859119
 O 4.167248 2.303125 2.874603
 O 2.498762 1.558785 -3.623894
 O -4.223358 2.535034 -6.342018
 O 4.706226 -5.777756 -0.964927
 O 1.893448 -0.700884 -5.208220
 O -1.884823 -0.066266 -5.148557
 O 1.275793 -0.469046 1.132553
 O 5.003741 -1.754340 -3.441304
 O 5.038447 -0.163386 -0.101460
 O 0.135905 4.696485 3.170400
 O -4.645975 0.602164 -4.188284
 O 1.072831 -3.861440 -0.318035
 O 4.395319 4.430185 -5.176832
 O 2.674997 5.673385 5.624029
 O -5.533842 4.842631 -1.858188
 O -0.211559 0.915550 -2.210543
 O -3.329684 -4.012677 -0.875437
 O -2.944785 5.532162 3.187073
 O -2.151712 2.924313 4.802885
 O -2.324726 -1.210061 -0.754318
 O -1.418336 -1.469143 5.051972
 O 0.741794 1.819714 5.437664
 O -4.532307 3.228917 1.300661
 O 3.244212 4.302116 -1.126711
 O 2.802714 -5.602509 -3.983390
 O -2.646335 4.216403 -2.753904
 O 4.625013 0.651044 5.886164
 O -2.596875 0.463239 2.206132
 O -0.473420 -2.050687 -2.984176
 O -0.003627 -3.446142 -5.580165
 O 5.953401 -5.874771 4.433583
 O 4.405897 -3.394627 0.167171
 O 4.786404 -0.835787 2.341475
 O 1.588790 3.997925 -4.244973
 O -1.396329 -5.853823 -0.047816
 O -5.204183 -1.902204 -5.985605
 O -4.746572 1.197842 -0.820254
 O 5.009190 2.030459 -2.602673
 O 2.582098 -0.371588 -1.265785
 O -4.978388 -1.723047 1.110547
 O 1.696001 2.338688 1.245361
 H -4.984951 -1.871129 -1.156598
 H -5.007445 -0.413601 -1.551848
 H 4.200305 -1.627318 5.227745
 H 2.771155 -2.215105 5.030001
 H -6.435482 5.134834 -5.132603
 H -5.169684 6.040649 -4.593130
 H 0.024126 2.998757 -1.424919
 H 1.043650 4.211250 -1.470138
 H -5.714769 0.853686 4.063604
 H -4.552817 1.636196 4.643103
 H 0.088660 6.827732 4.877710
 H 0.278179 6.002017 6.189068
 H -0.708038 -5.592319 -2.119475
 H -1.099902 -5.822017 -3.558860
 H 2.904749 1.162543 3.828229
 H 1.705118 0.600330 4.565830
 H -3.146862 -6.166692 6.425603
 H -1.763078 -5.904941 5.726337
 H 1.944104 -1.847789 2.819606
 H 2.536605 -2.360738 1.516117
 H 3.625706 -6.649995 2.837601
 H 2.282615 -6.832464 2.083483
 H -4.108874 -3.995556 5.406957
 H -4.757867 -2.875218 4.739899
 H -4.819537 -6.775307 0.610295
 H -4.022396 -5.672854 -0.304252
 H -3.057140 -4.556531 -3.980084
 H -3.212414 -6.009093 -3.263872
 H 2.457242 -2.262365 -2.421913
 H 2.257609 -3.717419 -1.887562
 H -1.561906 2.995558 -0.627192
 H -1.982793 1.819619 0.548419
 H -0.731385 -3.029412 2.023779
 H -0.938843 -1.971672 3.180976
 H 1.008866 -4.334948 3.328586
 H -0.513814 -3.998061 3.771019
 H 5.682598 -5.135914 -5.162122
 H 5.203741 -3.854446 -4.340345
 H 5.795589 5.162650 2.769824
 H 5.085125 5.015943 1.317404
 H 5.461726 -2.443081 3.033580
 H 4.643318 -3.725438 3.311969
 H -2.337678 -2.269310 -3.404970
 H -2.813388 -2.613461 -4.841231
 H -0.398652 3.044349 -4.346997
 H -1.388155 1.924605 -4.471008
 H 4.237146 3.256500 3.087147
 H 3.603959 2.226897 2.066393
 H 2.145734 0.982484 -4.350122
 H 2.295726 2.517976 -3.779213
 H -4.574261 1.943269 -5.638874
 H -3.235272 2.447240 -6.377937
 H 4.616765 -5.521470 -0.013453
 H 5.618868 -6.129457 -1.096039
 H 2.670621 -1.282573 -5.418699
 H 1.472432 -0.468605 -6.056349
 H -2.168287 -0.396521 -6.036495
 H -2.714785 -0.025062 -4.644884
 H 1.627597 0.435925 1.252845
 H 1.305802 -0.552979 0.167661
 H 4.224567 -2.154929 -2.983840
 H 5.683960 -1.830526 -2.719677
 H 5.124459 0.655920 -0.624423
 H 5.716533 -0.760692 -0.523525
 H 0.217408 5.216716 4.017675
 H -0.814459 4.593996 3.010129
 H -4.066005 0.644450 -3.395244
 H -5.507950 0.641028 -3.695988
 H 0.276245 -4.416041 -0.469230
 H 0.627931 -3.053164 -0.003897
 H 3.807877 4.718831 -5.926874
 H 4.615587 3.489414 -5.285762
 H 2.780817 5.586436 4.632059
 H 3.328097 6.373895 5.859622
 H -6.184368 4.365716 -1.309664
 H -4.912667 4.183073 -2.249253
 H -1.172223 1.110224 -2.085045
 H 0.182092 0.605437 -1.373469
 H -3.184455 -3.596294 0.013111
 H -4.245116 -3.827893 -1.167562
 H -3.218023 5.637456 2.256634
 H -3.461883 6.207032 3.693956
 H -2.462482 2.896900 3.880834
 H -2.101624 3.856889 5.080991
 H -2.799702 -1.996949 -0.438897
 H -2.594001 -0.583902 -0.045421
 H -2.174869 -2.081489 4.857045
 H -0.755457 -1.936979 5.605427
 H 0.382162 2.249168 6.250755
 H 0.247102 2.121167 4.644959
 H -4.191221 2.646454 2.013677
 H -3.906009 3.166026 0.527809
 H 3.719987 5.019103 -1.612029
 H 3.808680 3.514472 -1.319798
 H 3.774182 -5.358177 -3.935130
 H 2.429410 -5.811465 -3.110890
 H -1.882953 4.273970 -3.363331
 H -2.243468 4.623605 -1.958149
 H 4.683699 0.114346 6.718985
 H 3.713270 0.481223 5.573101
 H -1.923411 -0.220106 2.080843
 H -3.429736 -0.060220 2.280461
 H -0.191194 -1.682336 -3.855606
 H 0.033021 -2.883699 -3.022870
 H -0.396503 -3.880778 -4.798839
 H 0.957838 -3.533391 -5.388341
 H 6.574978 -5.912394 5.194812
 H 5.888044 -4.936089 4.140015
 H 5.300128 -3.689824 -0.079446
 H 3.887616 -3.615755 -0.640859
 H 5.207867 0.044843 2.322546
 H 4.059852 -0.658602 2.970169
 H 1.646887 3.940399 -5.219078
 H 2.185937 4.759149 -4.065695
 H -0.708477 -6.547778 0.074630
 H -1.965489 -5.958107 0.750978
 H -5.319711 -0.941271 -5.771612
 H -5.432107 -2.359016 -5.139044
 H -3.811167 1.049452 -0.569041
 H -5.198053 1.418104 0.023128
 H 4.815606 2.869944 -3.066097
 H 4.292783 1.447510 -2.970686
 H 3.502580 -0.438083 -0.922970
 H 2.663130 0.237731 -2.041869
 H -5.912185 -1.415769 1.171619
 H -5.004693 -2.579915 1.602547
 H 1.641705 3.146255 1.815361
 H 1.542017 2.653398 0.326813
K_POINTS
 1
0.0 0.0 0.0 1.0