
&control
    calculation='scf'
    pseudo_dir = './',
    outdir='./outputs',
    disk_io='high'
/
&system
    ibrav= 1, celldm(1)=20.000000, nat=  192, ntyp= 2,
    ecutwfc = 30.0, nosym=.true., occupations='smearing',
    smearing='m-v', degauss=0.025
/
&electrons
    conv_thr =  1.0d-8,
    mixing_beta = 0.7
/
&ions
    pot_extrapolation='second-order'
    wfc_extrapolation='second-order'
    ion_temperature = 'andersen'
    tempw = 1000

/
ATOMIC_SPECIES
 H  1.01  H.blyp-hgh.UPF
 O  16.0  O.blyp-hgh.UPF
ATOMIC_POSITIONS bohr
 O -5.220141 -1.299385 -1.785253
 O 3.477683 -2.361789 5.701452
 O -5.587323 5.937213 -5.375560
 O 0.309338 3.831916 -1.057972
 O -4.803488 0.965830 3.811968
 O -0.247520 6.170031 5.672339
 O -0.543049 -5.387186 -2.870132
 O 2.400591 0.537259 4.251137
 O -2.708405 -5.581718 5.884878
 O 2.646306 -2.505393 2.689625
 O 2.640169 -6.495179 2.915832
 O -3.942434 -3.589660 4.594386
 O -4.580064 -6.013507 0.529348
 O -3.427864 -5.348640 -3.914671
 O 2.869348 -3.239341 -2.318975
 O -2.179493 2.374254 -0.407227
 O -1.442627 -2.628662 2.559706
 O 0.296692 -4.579532 3.724382
 O 4.799506 -4.593172 -4.832293
 O 4.928701 5.147703 2.292764
 O 5.348623 -3.383885 3.522872
 O -3.035520 -2.547284 -3.886600
 O -1.215367 2.872590 -4.717278
 O 4.164398 2.217137 2.764075
 O 2.656328 1.506023 -3.728494
 O -4.128133 2.589082 -6.177556
 O 4.837154 -5.718614 -0.877169
 O 1.771725 -0.460371 -5.352431
 O -1.776737 0.005970 -5.176010
 O 1.290636 -0.601518 1.152361
 O 5.217166 -1.789568 -3.481132
 O 4.911672 -0.207765 -0.197005
 O 0.231784 4.619457 3.492498
 O -4.719889 0.557898 -4.136923
 O 1.053020 -3.862593 -0.257792
 O 4.405658 4.374125 -5.341469
 O 2.524738 5.815088 5.576200
 O -5.648620 5.003555 -1.770507
 O -0.258935 1.015095 -2.304812
 O -3.512073 -4.025858 -0.925485
 O -2.985727 5.572481 3.094189
 O -2.121569 2.960011 4.803970
 O -2.238511 -1.348178 -0.705314
 O -1.435975 -1.419204 5.177199
 O 0.713487 1.857197 5.573673
 O -4.595352 3.293959 1.289068
 O 3.238489 4.238951 -1.315297
 O 2.690168 -5.674422 -4.047977
 O -2.773190 4.285129 -2.897726
 O 4.488409 0.626827 6.108254
 O -2.514404 0.504842 2.158899
 O -0.259351 -1.991717 -3.182148
 O 0.021081 -3.425370 -5.642938
 O 6.076497 -5.902149 4.455115
 O 4.164425 -3.447219 0.214622
 O 4.999078 -0.848644 2.511252
 O 1.735996 3.892374 -4.292285
 O -1.468910 -5.974924 -0.192793
 O -5.161388 -1.827484 -6.008112
 O -4.683774 1.149267 -0.908036
 O 4.921781 2.334036 -2.830858
 O 2.399157 -0.384189 -1.248184
 O -4.898152 -1.956209 1.003656
 O 1.791316 2.454359 1.244783
 H -4.408249 -1.752484 -1.462892
 H -5.022158 -0.339887 -1.640817
 H 4.184408 -1.915775 5.196203
 H 2.711836 -2.226073 5.112701
 H -6.264369 5.213322 -5.398038
 H -5.581492 6.194690 -4.432149
 H 0.484646 3.126666 -1.724801
 H 1.193402 4.283769 -1.076534
 H -5.563680 0.369979 3.652065
 H -4.953539 1.459459 4.667325
 H -0.067943 6.916962 5.008445
 H 0.638764 5.983823 6.062901
 H -1.000002 -5.457404 -2.003609
 H -0.833280 -6.172050 -3.375790
 H 2.745263 1.321395 3.742844
 H 1.593265 0.782880 4.766308
 H -3.221154 -6.129317 6.508242
 H -1.776323 -5.936987 5.895567
 H 2.251852 -1.605911 2.784754
 H 2.639314 -2.558335 1.715252
 H 3.578540 -6.532604 2.607199
 H 1.998440 -6.701504 2.218907
 H -3.645676 -4.406933 5.057098
 H -4.713406 -3.082027 4.892439
 H -4.512369 -6.987001 0.660520
 H -4.299267 -6.059684 -0.401690
 H -3.493754 -4.384984 -3.716470
 H -2.848366 -5.689181 -3.216186
 H 2.557776 -2.304744 -2.445860
 H 2.049592 -3.501739 -1.826054
 H -1.773036 3.152099 -0.862605
 H -1.628710 2.647690 0.352378
 H -0.906156 -3.205807 2.022790
 H -0.867262 -1.822965 2.661038
 H 1.204994 -4.216584 3.776295
 H -0.274510 -3.776926 3.696715
 H 5.135380 -5.223076 -5.500870
 H 5.338718 -3.796071 -4.703278
 H 5.719517 4.861738 2.820406
 H 5.110580 4.818370 1.398500
 H 5.449787 -2.737365 2.793034
 H 4.377431 -3.512066 3.536665
 H -2.225137 -2.535432 -3.329879
 H -2.689748 -2.284271 -4.759161
 H -0.259731 2.949002 -4.487143
 H -1.365156 1.917576 -4.974083
 H 4.470747 3.033309 3.205359
 H 3.741629 2.547098 1.944148
 H 2.494887 0.988535 -4.550016
 H 2.375154 2.430319 -3.961650
 H -4.016992 2.158722 -5.316728
 H -3.307226 2.367169 -6.655414
 H 5.112198 -5.811042 0.049140
 H 5.677139 -5.813746 -1.364609
 H 2.404025 -1.181754 -5.608875
 H 1.188982 -0.431674 -6.130837
 H -1.748616 -0.413922 -6.089282
 H -2.730641 -0.178236 -4.984908
 H 1.449816 0.365910 1.256726
 H 1.536308 -0.788550 0.205566
 H 4.360241 -2.029213 -3.107980
 H 5.814334 -1.394691 -2.813321
 H 4.873990 0.585859 -0.783739
 H 5.568900 -0.785172 -0.654944
 H -0.014855 4.992584 4.380646
 H -0.656320 4.537201 3.068528
 H -3.859692 0.885755 -3.822607
 H -5.330565 0.656573 -3.392213
 H 0.422107 -4.367193 -0.810793
 H 0.716003 -2.938604 -0.280495
 H 3.775777 4.997631 -5.818823
 H 4.445662 3.549785 -5.868187
 H 2.459880 5.437788 4.650873
 H 2.832106 6.715172 5.339516
 H -6.049447 4.118440 -1.633026
 H -4.725963 4.820367 -2.077846
 H -0.814902 1.392169 -1.595005
 H 0.155465 0.272388 -1.808844
 H -2.977828 -3.796738 -0.132343
 H -4.399574 -3.829822 -0.531015
 H -3.671446 5.632316 2.398020
 H -3.302095 6.182826 3.792634
 H -2.963367 3.032701 4.301094
 H -2.156955 3.824496 5.270107
 H -2.748240 -2.180882 -0.728181
 H -2.110794 -1.074508 0.227359
 H -2.004254 -2.215106 5.015483
 H -0.829077 -1.764651 5.874283
 H -0.235106 1.855616 5.817120
 H 0.562418 2.136976 4.637311
 H -4.578719 2.776343 2.132497
 H -4.090186 2.698562 0.700908
 H 3.707518 5.097025 -1.455044
 H 3.909315 3.534643 -1.237913
 H 3.440702 -5.063352 -4.333135
 H 2.678078 -5.358708 -3.119309
 H -2.164479 3.716573 -3.486556
 H -2.412112 4.465269 -2.015031
 H 4.321704 0.438738 7.038049
 H 3.597926 0.811489 5.699193
 H -1.547150 0.274217 2.159386
 H -3.041259 -0.208393 2.596131
 H -0.704633 -1.579579 -3.958801
 H 0.061355 -2.874715 -3.456902
 H -0.549526 -4.023019 -5.115212
 H 0.914534 -3.786567 -5.523164
 H 6.545782 -5.617380 5.261589
 H 5.844011 -5.067619 3.980941
 H 5.101355 -3.688839 0.271761
 H 3.984434 -3.345489 -0.746692
 H 5.170930 0.029575 2.099127
 H 4.260909 -0.693906 3.137694
 H 1.596253 3.881191 -5.261746
 H 1.827027 4.859220 -4.026568
 H -0.540337 -6.263430 -0.118400
 H -1.716941 -5.796976 0.737045
 H -5.811267 -1.380830 -5.431286
 H -5.314050 -2.765145 -5.771873
 H -3.839585 1.035405 -0.431713
 H -5.230639 1.698532 -0.311983
 H 4.856037 3.081166 -3.464212
 H 4.233650 1.714249 -3.212634
 H 3.280153 -0.572438 -0.842757
 H 2.478303 -0.099970 -2.177804
 H -5.741857 -1.478536 1.141181
 H -5.125592 -2.842763 1.329109
 H 1.247720 3.069380 1.777390
 H 1.597380 2.781747 0.343931
K_POINTS
 1
0.0 0.0 0.0 1.0