
&control
    calculation='scf'
    pseudo_dir = './',
    outdir='./outputs',
    disk_io='high'
/
&system
    ibrav= 1, celldm(1)=20.000000, nat=  192, ntyp= 2,
    ecutwfc = 30.0, nosym=.true., occupations='smearing',
    smearing='m-v', degauss=0.025
/
&electrons
    conv_thr =  1.0d-8,
    mixing_beta = 0.7
/
&ions
    pot_extrapolation='second-order'
    wfc_extrapolation='second-order'
    ion_temperature = 'andersen'
    tempw = 1000

/
ATOMIC_SPECIES
 H  1.01  H.blyp-hgh.UPF
 O  16.0  O.blyp-hgh.UPF
ATOMIC_POSITIONS bohr
 O -5.222636 -1.297595 -1.770978
 O 3.470242 -2.368694 5.707933
 O -5.578219 5.947999 -5.376096
 O 0.325352 3.820601 -1.054480
 O -4.810272 0.971763 3.803295
 O -0.238197 6.170552 5.689505
 O -0.551109 -5.386274 -2.859773
 O 2.400605 0.550769 4.265170
 O -2.717483 -5.587758 5.880637
 O 2.646880 -2.505611 2.707467
 O 2.637128 -6.496851 2.917368
 O -3.934298 -3.596066 4.591617
 O -4.583998 -6.028645 0.531260
 O -3.426246 -5.340783 -3.905448
 O 2.865011 -3.241858 -2.312938
 O -2.167630 2.370784 -0.419978
 O -1.442246 -2.640947 2.568470
 O 0.302271 -4.574332 3.710805
 O 4.799787 -4.591092 -4.828723
 O 4.932193 5.143968 2.290638
 O 5.334617 -3.388890 3.522830
 O -3.028650 -2.553430 -3.882128
 O -1.213929 2.873741 -4.707932
 O 4.164046 2.213271 2.756112
 O 2.669475 1.498080 -3.736523
 O -4.128929 2.592230 -6.165579
 O 4.845748 -5.717577 -0.874372
 O 1.764968 -0.448252 -5.362507
 O -1.770984 0.013465 -5.175387
 O 1.287722 -0.609845 1.154280
 O 5.230574 -1.789892 -3.487703
 O 4.905031 -0.209202 -0.208427
 O 0.232754 4.610821 3.511692
 O -4.722889 0.557011 -4.134335
 O 1.049151 -3.861815 -0.255459
 O 4.408074 4.366836 -5.354784
 O 2.516054 5.822452 5.574016
 O -5.652525 5.009471 -1.765064
 O -0.262497 1.026668 -2.307210
 O -3.526326 -4.021684 -0.928406
 O -2.989296 5.575280 3.086827
 O -2.118236 2.967117 4.797261
 O -2.230607 -1.353282 -0.701669
 O -1.435080 -1.421812 5.185974
 O 0.701000 1.864645 5.581239
 O -4.599723 3.294782 1.288598
 O 3.236340 4.236422 -1.326467
 O 2.676346 -5.681937 -4.047649
 O -2.781857 4.292024 -2.906551
 O 4.479271 0.627107 6.124428
 O -2.505667 0.504699 2.152096
 O -0.246335 -1.988086 -3.193051
 O 0.023295 -3.423383 -5.647042
 O 6.083403 -5.903940 4.455911
 O 4.148171 -3.445951 0.218589
 O 5.017149 -0.848035 2.523874
 O 1.739892 3.891945 -4.298593
 O -1.469085 -5.984697 -0.199428
 O -5.162678 -1.823797 -6.007115
 O -4.679757 1.146640 -0.913874
 O 4.918752 2.353779 -2.846537
 O 2.383357 -0.387565 -1.249719
 O -4.893044 -1.973615 0.995854
 O 1.796878 2.464402 1.244735
 H -4.392034 -1.743282 -1.501080
 H -5.023596 -0.333631 -1.644714
 H 4.191040 -1.939782 5.207684
 H 2.714333 -2.233227 5.103675
 H -6.258556 5.228934 -5.414768
 H -5.592680 6.193048 -4.429015
 H 0.504562 3.144694 -1.738508
 H 1.195476 4.289699 -1.049075
 H -5.544997 0.342308 3.638687
 H -4.975376 1.423474 4.671238
 H -0.075781 6.920060 5.022960
 H 0.667259 5.991789 6.050197
 H -1.039102 -5.453494 -2.007758
 H -0.812307 -6.189482 -3.355383
 H 2.737030 1.315303 3.733459
 H 1.595647 0.806402 4.779143
 H -3.226070 -6.114507 6.526804
 H -1.782625 -5.935256 5.919512
 H 2.281472 -1.591950 2.765397
 H 2.665318 -2.578943 1.733976
 H 3.570231 -6.524073 2.596447
 H 1.966791 -6.689459 2.243429
 H -3.619279 -4.407959 5.039363
 H -4.708139 -3.110617 4.922837
 H -4.507733 -6.999604 0.659703
 H -4.314821 -6.077987 -0.399220
 H -3.516136 -4.382901 -3.702227
 H -2.834945 -5.665730 -3.209232
 H 2.567771 -2.306725 -2.441987
 H 2.058981 -3.500143 -1.805449
 H -1.810408 3.156012 -0.903942
 H -1.635080 2.671087 0.341298
 H -0.913383 -3.218154 2.000870
 H -0.878877 -1.827339 2.625151
 H 1.208558 -4.213411 3.793176
 H -0.259134 -3.762938 3.700284
 H 5.105580 -5.226320 -5.502078
 H 5.332274 -3.786661 -4.727517
 H 5.722390 4.871901 2.836277
 H 5.117062 4.798318 1.397020
 H 5.453945 -2.748149 2.793117
 H 4.359998 -3.488883 3.553186
 H -2.212357 -2.543804 -3.336610
 H -2.687277 -2.259474 -4.747314
 H -0.253103 2.936599 -4.491416
 H -1.362103 1.938086 -4.996151
 H 4.491520 3.012246 3.214955
 H 3.735325 2.552397 1.944969
 H 2.497571 0.977383 -4.552918
 H 2.380818 2.423977 -3.960470
 H -3.992063 2.164498 -5.304313
 H -3.310281 2.356216 -6.642265
 H 5.148423 -5.824864 0.044141
 H 5.680126 -5.809876 -1.372386
 H 2.392819 -1.166536 -5.619355
 H 1.161280 -0.413405 -6.126137
 H -1.728803 -0.397177 -6.091104
 H -2.724412 -0.201338 -5.013244
 H 1.437772 0.358149 1.262518
 H 1.560376 -0.788478 0.211105
 H 4.381580 -2.032767 -3.110179
 H 5.829527 -1.390340 -2.824653
 H 4.864896 0.581715 -0.788747
 H 5.553343 -0.784431 -0.659854
 H -0.006648 4.982075 4.396929
 H -0.635732 4.530039 3.068161
 H -3.865230 0.899450 -3.831991
 H -5.314853 0.669877 -3.376113
 H 0.429551 -4.361047 -0.824451
 H 0.724221 -2.934469 -0.299997
 H 3.778215 5.018390 -5.792335
 H 4.440538 3.555879 -5.904873
 H 2.431986 5.458819 4.640763
 H 2.795073 6.724415 5.307655
 H -6.036717 4.113955 -1.664999
 H -4.731853 4.872827 -2.082084
 H -0.793442 1.384240 -1.568897
 H 0.147719 0.246793 -1.856187
 H -2.973480 -3.844966 -0.138923
 H -4.385928 -3.831456 -0.498339
 H -3.697458 5.635758 2.419215
 H -3.275908 6.176069 3.800347
 H -2.970246 3.028569 4.314914
 H -2.140960 3.814792 5.292012
 H -2.741288 -2.183954 -0.744432
 H -2.092047 -1.124467 0.241299
 H -2.012712 -2.205759 5.009090
 H -0.824645 -1.765897 5.877650
 H -0.251758 1.811785 5.798951
 H 0.598319 2.158196 4.642329
 H -4.617512 2.793247 2.139681
 H -4.085754 2.699085 0.718483
 H 3.708866 5.096391 -1.424988
 H 3.907240 3.532445 -1.256700
 H 3.408104 -5.062868 -4.367600
 H 2.692824 -5.323540 -3.132656
 H -2.204726 3.670168 -3.480930
 H -2.404819 4.450819 -2.030510
 H 4.306631 0.460454 7.052605
 H 3.603367 0.818333 5.697618
 H -1.540520 0.313946 2.172072
 H -3.012964 -0.197108 2.625843
 H -0.715097 -1.567737 -3.949678
 H 0.058618 -2.866674 -3.499776
 H -0.560221 -4.039180 -5.147869
 H 0.909629 -3.805411 -5.527189
 H 6.543497 -5.619659 5.269192
 H 5.861161 -5.076005 3.962488
 H 5.084055 -3.686855 0.295320
 H 3.986009 -3.333190 -0.744300
 H 5.144655 0.025966 2.090923
 H 4.274207 -0.687623 3.139518
 H 1.599856 3.863869 -5.266214
 H 1.828092 4.855599 -4.013378
 H -0.534673 -6.257322 -0.135935
 H -1.718229 -5.778983 0.724849
 H -5.825725 -1.411438 -5.420212
 H -5.292154 -2.774331 -5.817559
 H -3.839552 1.039436 -0.428451
 H -5.234778 1.706466 -0.336590
 H 4.873309 3.104122 -3.479873
 H 4.210173 1.743968 -3.210391
 H 3.277019 -0.568825 -0.844283
 H 2.473563 -0.103731 -2.179155
 H -5.728663 -1.487299 1.147299
 H -5.129748 -2.853374 1.331129
 H 1.224903 3.050060 1.776601
 H 1.598410 2.790756 0.349131
K_POINTS
 1
0.0 0.0 0.0 1.0