
&control
    calculation='scf'
    pseudo_dir = './',
    outdir='./outputs',
    disk_io='high'
/
&system
    ibrav= 1, celldm(1)=20.000000, nat=  192, ntyp= 2,
    ecutwfc = 30.0, nosym=.true., occupations='smearing',
    smearing='m-v', degauss=0.025
/
&electrons
    conv_thr =  1.0d-8,
    mixing_beta = 0.7
/
&ions
    pot_extrapolation='second-order'
    wfc_extrapolation='second-order'
    ion_temperature = 'andersen'
    tempw = 1000

/
ATOMIC_SPECIES
 H  1.01  H.blyp-hgh.UPF
 O  16.0  O.blyp-hgh.UPF
ATOMIC_POSITIONS bohr
 O -5.260836 -1.264552 -1.605162
 O 3.336557 -2.454078 5.782138
 O -5.480343 6.068421 -5.388491
 O 0.552815 3.686913 -0.999351
 O -4.934108 1.039652 3.711902
 O -0.083417 6.184696 5.910863
 O -0.665225 -5.383185 -2.713043
 O 2.443874 0.679846 4.396958
 O -2.845454 -5.723523 5.836063
 O 2.638806 -2.493276 2.921618
 O 2.564832 -6.480162 2.987451
 O -3.797265 -3.644579 4.513010
 O -4.624751 -6.264302 0.573381
 O -3.452958 -5.248813 -3.759817
 O 2.803073 -3.262191 -2.241238
 O -1.992391 2.361393 -0.577033
 O -1.387757 -2.793964 2.628556
 O 0.379080 -4.485426 3.571094
 O 4.785404 -4.552466 -4.775292
 O 5.017326 5.067268 2.242212
 O 5.149312 -3.479920 3.524638
 O -2.923702 -2.626487 -3.807730
 O -1.193958 2.902180 -4.601386
 O 4.162276 2.134396 2.650727
 O 2.834866 1.371430 -3.835061
 O -4.144849 2.612144 -5.996437
 O 4.973703 -5.719373 -0.831474
 O 1.677098 -0.315557 -5.470900
 O -1.737046 0.118772 -5.180192
 O 1.240332 -0.702292 1.199209
 O 5.399581 -1.773701 -3.629226
 O 4.798808 -0.216896 -0.371544
 O 0.270045 4.448486 3.725303
 O -4.735340 0.576535 -4.076717
 O 0.970447 -3.837720 -0.259058
 O 4.488878 4.270520 -5.520106
 O 2.383042 5.940534 5.486077
 O -5.660273 5.061195 -1.729472
 O -0.284415 1.159319 -2.299766
 O -3.674250 -3.945653 -0.911204
 O -3.024060 5.609943 2.993269
 O -2.037051 3.048880 4.688772
 O -2.105999 -1.426957 -0.634555
 O -1.402188 -1.477835 5.280319
 O 0.503279 1.975063 5.660529
 O -4.684498 3.312338 1.289271
 O 3.201813 4.241755 -1.432386
 O 2.477651 -5.731282 -4.021126
 O -2.890991 4.351387 -3.010798
 O 4.411474 0.652479 6.316439
 O -2.375678 0.494020 2.058948
 O -0.099739 -1.960992 -3.319877
 O 0.044745 -3.434146 -5.675528
 O 6.158347 -5.948903 4.434122
 O 3.923706 -3.364671 0.310362
 O 5.258634 -0.760309 2.678855
 O 1.733299 3.865207 -4.351419
 O -1.471217 -6.107198 -0.286128
 O -5.201586 -1.784714 -5.991770
 O -4.629615 1.138776 -1.001692
 O 4.922230 2.623034 -3.010547
 O 2.219950 -0.465960 -1.299463
 O -4.854460 -2.241420 0.920515
 O 1.847424 2.596664 1.249829
 H -4.500143 -1.659017 -2.084271
 H -4.989307 -0.311835 -1.431861
 H 4.275576 -2.253560 5.568726
 H 2.882406 -2.382129 4.903501
 H -6.140185 5.385694 -5.637946
 H -5.552278 6.237133 -4.432119
 H 0.725737 3.294103 -1.870300
 H 1.326849 4.279128 -0.919602
 H -5.243120 0.141202 3.432862
 H -5.163359 0.981525 4.651445
 H -0.173427 6.818892 5.138662
 H 0.926661 6.091680 5.938230
 H -1.439766 -5.433937 -2.122144
 H -0.445939 -6.287827 -3.022414
 H 2.717541 1.252883 3.657930
 H 1.757012 1.154018 4.933441
 H -3.363376 -5.680675 6.694878
 H -1.930007 -5.862353 6.174336
 H 2.520275 -1.594702 2.526274
 H 3.105806 -3.028385 2.232197
 H 3.282315 -6.632099 2.329720
 H 1.714594 -6.538897 2.512632
 H -3.325161 -4.357045 5.022021
 H -4.563606 -3.597010 5.117384
 H -4.646210 -7.219286 0.769568
 H -4.541884 -6.088696 -0.373439
 H -3.620607 -4.282024 -3.682208
 H -2.685821 -5.399718 -3.184207
 H 2.565491 -2.324361 -2.366315
 H 2.355891 -3.543686 -1.406137
 H -2.426118 2.870838 -1.293024
 H -1.758842 2.874305 0.224243
 H -1.155698 -3.381181 1.841790
 H -1.111708 -1.927062 2.293085
 H 1.302565 -4.213318 3.725125
 H -0.172203 -3.666352 3.631243
 H 5.114433 -5.085095 -5.528131
 H 5.154204 -3.701319 -5.090139
 H 5.687027 5.320098 2.938262
 H 5.386869 4.502905 1.516229
 H 5.446528 -2.759050 2.921624
 H 4.218998 -3.161604 3.615164
 H -2.048634 -2.613241 -3.355700
 H -2.890766 -2.054964 -4.595624
 H -0.240987 2.830543 -4.401491
 H -1.427924 2.037811 -4.972914
 H 4.685433 2.767939 3.177900
 H 3.529165 2.689939 2.131377
 H 2.296776 0.795016 -4.466841
 H 2.390045 2.258035 -3.896642
 H -4.170597 2.243466 -5.088650
 H -3.336286 2.311408 -6.455850
 H 5.507309 -5.968097 -0.042264
 H 5.553814 -6.011987 -1.574344
 H 2.281935 -0.963222 -5.902309
 H 0.897142 -0.174204 -6.026458
 H -1.474035 -0.152075 -6.087706
 H -2.641048 -0.245012 -5.112168
 H 1.247995 0.261952 1.372845
 H 1.686898 -0.685364 0.311123
 H 4.736165 -2.207129 -3.056413
 H 6.132705 -1.661633 -2.957260
 H 4.899503 0.591231 -0.887606
 H 5.491166 -0.803990 -0.716611
 H -0.034049 4.953673 4.520972
 H -0.575383 4.480186 3.256433
 H -3.857475 0.934608 -3.847059
 H -5.278487 0.889720 -3.322260
 H 0.481965 -4.283569 -0.983372
 H 0.765358 -2.898106 -0.437690
 H 3.807733 4.980880 -5.578251
 H 4.323133 3.797156 -6.365035
 H 2.282540 5.551532 4.561543
 H 2.516167 6.893804 5.301509
 H -5.811796 4.203384 -2.171069
 H -4.916164 5.333669 -2.311695
 H -0.618808 1.117437 -1.373392
 H -0.134844 0.245211 -2.628473
 H -3.025245 -4.601600 -0.574592
 H -4.371184 -3.740136 -0.279610
 H -3.953106 5.803472 2.780695
 H -2.929574 5.989906 3.891078
 H -2.920952 3.190668 4.300276
 H -1.999907 3.623122 5.484276
 H -2.612592 -2.211009 -0.948421
 H -2.030389 -1.665990 0.305843
 H -2.151852 -1.998924 4.915026
 H -0.805829 -2.162954 5.687658
 H -0.336466 1.536709 5.364447
 H 0.648806 2.706179 5.002347
 H -5.024323 2.906038 2.111504
 H -3.874033 2.803734 1.091499
 H 3.744805 4.954480 -1.034260
 H 3.836919 3.573307 -1.806345
 H 2.929610 -5.398094 -4.822256
 H 2.675847 -5.057854 -3.323142
 H -2.745982 3.447608 -3.395794
 H -2.198272 4.407479 -2.325058
 H 4.089856 0.801661 7.231257
 H 3.638061 0.697788 5.721308
 H -1.498432 0.772586 2.346172
 H -2.634941 0.156860 2.941099
 H -0.564735 -1.207301 -3.758890
 H 0.064537 -2.550374 -4.102155
 H -0.649171 -4.134227 -5.754447
 H 0.868284 -3.957716 -5.568068
 H 6.578677 -5.744662 5.300487
 H 6.141144 -5.100539 3.931589
 H 4.809316 -3.705292 0.526915
 H 3.932146 -3.360374 -0.674971
 H 4.920716 -0.232478 1.922422
 H 4.526455 -0.774388 3.319870
 H 1.709647 3.927352 -5.326337
 H 2.084623 4.790866 -4.147378
 H -0.508251 -6.259715 -0.223342
 H -1.716760 -5.747034 0.592401
 H -5.898989 -1.790116 -5.287311
 H -5.010502 -2.728320 -6.114732
 H -3.806671 1.109881 -0.461360
 H -5.244535 1.771577 -0.594136
 H 5.046519 3.312363 -3.703387
 H 4.044963 2.272260 -3.267364
 H 3.172435 -0.429625 -0.968049
 H 2.270958 0.106704 -2.111679
 H -5.482448 -1.542907 1.182213
 H -5.002268 -2.947518 1.589525
 H 1.103980 2.802299 1.844264
 H 1.543772 2.848211 0.349086
K_POINTS
 1
0.0 0.0 0.0 1.0