
&control
    calculation='scf'
    pseudo_dir = './',
    outdir='./outputs',
    disk_io='high'
/
&system
    ibrav= 1, celldm(1)=20.000000, nat=  192, ntyp= 2,
    ecutwfc = 30.0, nosym=.true., occupations='smearing',
    smearing='m-v', degauss=0.025
/
&electrons
    conv_thr =  1.0d-8,
    mixing_beta = 0.7
/
&ions
    pot_extrapolation='second-order'
    wfc_extrapolation='second-order'
    ion_temperature = 'andersen'
    tempw = 1000

/
ATOMIC_SPECIES
 H  1.01  H.blyp-hgh.UPF
 O  16.0  O.blyp-hgh.UPF
ATOMIC_POSITIONS bohr
 O -5.262163 -1.262656 -1.596035
 O 3.323691 -2.460287 5.786556
 O -5.473660 6.076633 -5.391540
 O 0.570168 3.678836 -0.993509
 O -4.946027 1.040970 3.708247
 O -0.072867 6.187957 5.925555
 O -0.673040 -5.382505 -2.703250
 O 2.448890 0.687253 4.403734
 O -2.854617 -5.736594 5.836742
 O 2.639907 -2.493569 2.936519
 O 2.558439 -6.476832 2.992289
 O -3.785705 -3.648183 4.508657
 O -4.627879 -6.280057 0.581439
 O -3.459735 -5.243454 -3.748730
 O 2.800601 -3.265412 -2.236577
 O -1.981728 2.354621 -0.587711
 O -1.381820 -2.803609 2.628248
 O 0.384740 -4.480139 3.564764
 O 4.785762 -4.548564 -4.774546
 O 5.024312 5.061153 2.238675
 O 5.135590 -3.486447 3.523746
 O -2.916945 -2.631535 -3.800137
 O -1.193161 2.905065 -4.594975
 O 4.161372 2.127214 2.641723
 O 2.844031 1.360655 -3.841112
 O -4.147009 2.614172 -5.983483
 O 4.983337 -5.719765 -0.827739
 O 1.671069 -0.307633 -5.475869
 O -1.735712 0.128882 -5.180149
 O 1.238005 -0.706190 1.203746
 O 5.412717 -1.771594 -3.639623
 O 4.789665 -0.216205 -0.384100
 O 0.272703 4.434694 3.740327
 O -4.733703 0.581020 -4.069597
 O 0.961851 -3.834998 -0.262622
 O 4.497001 4.263868 -5.533418
 O 2.372059 5.950662 5.478190
 O -5.656022 5.061174 -1.733336
 O -0.284207 1.168208 -2.300388
 O -3.680896 -3.941043 -0.909908
 O -3.026016 5.612699 2.986874
 O -2.028826 3.052557 4.679818
 O -2.096232 -1.435704 -0.628418
 O -1.397819 -1.484372 5.285732
 O 0.489619 1.983757 5.666161
 O -4.692551 3.314472 1.288438
 O 3.200638 4.243547 -1.437431
 O 2.459919 -5.734434 -4.019475
 O -2.899848 4.352780 -3.014467
 O 4.410110 0.654964 6.328765
 O -2.361439 0.490913 2.056733
 O -0.092065 -1.959266 -3.331135
 O 0.044799 -3.437519 -5.676643
 O 6.163512 -5.953920 4.429572
 O 3.907321 -3.354899 0.320271
 O 5.275465 -0.749514 2.688669
 O 1.731199 3.865300 -4.354240
 O -1.472770 -6.115736 -0.292104
 O -5.206088 -1.780495 -5.990272
 O -4.625824 1.140080 -1.010130
 O 4.925792 2.646480 -3.019167
 O 2.212323 -0.472874 -1.307023
 O -4.853394 -2.264985 0.917695
 O 1.851030 2.605361 1.250947
 H -4.534093 -1.657404 -2.125147
 H -4.989504 -0.316322 -1.401620
 H 4.275337 -2.273326 5.608279
 H 2.908777 -2.394577 4.886754
 H -6.128874 5.389600 -5.640661
 H -5.545149 6.242597 -4.435952
 H 0.739178 3.296545 -1.877875
 H 1.349913 4.271167 -0.930709
 H -5.219444 0.144021 3.397212
 H -5.165988 0.971202 4.649689
 H -0.177226 6.802668 5.143388
 H 0.937575 6.091266 5.940616
 H -1.452621 -5.444827 -2.119013
 H -0.419202 -6.284449 -2.991576
 H 2.728198 1.250150 3.660296
 H 1.776435 1.175912 4.937833
 H -3.374615 -5.642900 6.692287
 H -1.943545 -5.860728 6.182376
 H 2.517581 -1.609260 2.500142
 H 3.124703 -3.053110 2.282502
 H 3.252946 -6.653206 2.319826
 H 1.701428 -6.529097 2.529995
 H -3.285957 -4.353752 5.007776
 H -4.564449 -3.622172 5.100628
 H -4.658955 -7.241869 0.756599
 H -4.561363 -6.103494 -0.372033
 H -3.611928 -4.269730 -3.686973
 H -2.673347 -5.381317 -3.194476
 H 2.542202 -2.330371 -2.347760
 H 2.381416 -3.531624 -1.382918
 H -2.465479 2.855994 -1.287627
 H -1.767616 2.920039 0.193291
 H -1.177834 -3.402646 1.841242
 H -1.132918 -1.932606 2.285424
 H 1.312175 -4.207798 3.698877
 H -0.168887 -3.660436 3.609073
 H 5.126364 -5.081840 -5.522734
 H 5.124209 -3.684957 -5.098125
 H 5.675058 5.358313 2.921936
 H 5.428622 4.485463 1.545451
 H 5.451597 -2.753969 2.941556
 H 4.213543 -3.148645 3.616333
 H -2.029814 -2.609245 -3.364766
 H -2.911071 -2.048462 -4.579637
 H -0.247298 2.828374 -4.386339
 H -1.434782 2.033931 -4.951987
 H 4.694865 2.753012 3.165773
 H 3.513033 2.699086 2.157702
 H 2.276552 0.785957 -4.448233
 H 2.378920 2.237686 -3.901397
 H -4.210449 2.244112 -5.078390
 H -3.334407 2.308122 -6.439564
 H 5.531019 -5.977043 -0.048637
 H 5.529201 -6.040464 -1.587038
 H 2.266812 -0.945004 -5.934735
 H 0.888684 -0.163058 -6.024264
 H -1.465679 -0.151218 -6.081823
 H -2.639071 -0.230580 -5.111298
 H 1.228482 0.252798 1.390372
 H 1.674758 -0.683692 0.315924
 H 4.763138 -2.233410 -3.062052
 H 6.156317 -1.688096 -2.979283
 H 4.913566 0.592205 -0.895431
 H 5.492732 -0.807355 -0.722261
 H -0.034138 4.952825 4.526712
 H -0.579045 4.470754 3.277441
 H -3.845851 0.921692 -3.845764
 H -5.296128 0.901988 -3.328964
 H 0.485371 -4.280752 -0.994045
 H 0.765446 -2.895216 -0.434285
 H 3.813293 4.965389 -5.569479
 H 4.320286 3.818434 -6.387289
 H 2.297942 5.553173 4.553033
 H 2.516445 6.906045 5.318413
 H -5.806790 4.218390 -2.201289
 H -4.930315 5.366233 -2.327551
 H -0.609708 1.081119 -1.369202
 H -0.166849 0.269235 -2.668506
 H -3.060139 -4.650518 -0.622654
 H -4.367152 -3.721728 -0.260243
 H -3.961818 5.824868 2.811557
 H -2.906780 5.968386 3.897699
 H -2.910723 3.223183 4.295897
 H -2.000436 3.608333 5.490899
 H -2.603249 -2.207181 -0.970541
 H -2.031639 -1.683119 0.311017
 H -2.159277 -1.980647 4.908915
 H -0.817286 -2.202516 5.655528
 H -0.338743 1.550872 5.311332
 H 0.605817 2.755348 5.040733
 H -5.042387 2.900535 2.103787
 H -3.858157 2.816321 1.137250
 H 3.747785 4.940416 -1.014426
 H 3.824442 3.592540 -1.860544
 H 2.899810 -5.429100 -4.840369
 H 2.670590 -5.043172 -3.341173
 H -2.773809 3.458327 -3.412930
 H -2.179405 4.424960 -2.352282
 H 4.071839 0.835081 7.240033
 H 3.644319 0.679532 5.731335
 H -1.497919 0.816566 2.336398
 H -2.635314 0.197161 2.945720
 H -0.534578 -1.177006 -3.734758
 H 0.071250 -2.512084 -4.138196
 H -0.646144 -4.130130 -5.800368
 H 0.870312 -3.962202 -5.570144
 H 6.589539 -5.760617 5.297298
 H 6.154720 -5.094693 3.946151
 H 4.785854 -3.712842 0.540084
 H 3.921347 -3.371886 -0.664609
 H 4.919391 -0.266433 1.911228
 H 4.558184 -0.786523 3.343960
 H 1.716709 3.937179 -5.326014
 H 2.105881 4.770601 -4.163146
 H -0.508690 -6.261255 -0.224246
 H -1.714877 -5.764066 0.592440
 H -5.896924 -1.813107 -5.274839
 H -4.991155 -2.723774 -6.114433
 H -3.802923 1.122086 -0.465541
 H -5.234977 1.778233 -0.600413
 H 5.055580 3.320583 -3.725126
 H 4.052300 2.293547 -3.284436
 H 3.164706 -0.424799 -0.974232
 H 2.234781 0.136209 -2.098425
 H -5.460328 -1.548495 1.181588
 H -4.981299 -2.943840 1.623674
 H 1.101134 2.791505 1.849801
 H 1.528444 2.850955 0.347834
K_POINTS
 1
0.0 0.0 0.0 1.0