
&control
    calculation='scf'
    pseudo_dir = './',
    outdir='./outputs',
    disk_io='high'
/
&system
    ibrav= 1, celldm(1)=20.000000, nat=  192, ntyp= 2,
    ecutwfc = 30.0, nosym=.true., occupations='smearing',
    smearing='m-v', degauss=0.025
/
&electrons
    conv_thr =  1.0d-8,
    mixing_beta = 0.7
/
&ions
    pot_extrapolation='second-order'
    wfc_extrapolation='second-order'
    ion_temperature = 'andersen'
    tempw = 1000

/
ATOMIC_SPECIES
 H  1.01  H.blyp-hgh.UPF
 O  16.0  O.blyp-hgh.UPF
ATOMIC_POSITIONS bohr
 O -5.272019 -1.262488 -1.552121
 O 3.247734 -2.494878 5.803489
 O -5.437875 6.122144 -5.417612
 O 0.677381 3.640951 -0.965743
 O -5.008244 1.045386 3.686082
 O -0.030917 6.210901 6.003204
 O -0.713623 -5.372493 -2.655224
 O 2.478798 0.721716 4.437561
 O -2.905666 -5.806800 5.852306
 O 2.650632 -2.493909 3.025148
 O 2.519555 -6.455087 3.006438
 O -3.715841 -3.666758 4.490021
 O -4.646323 -6.366472 0.633954
 O -3.510685 -5.211204 -3.686414
 O 2.793004 -3.282899 -2.209548
 O -1.934433 2.326500 -0.636887
 O -1.350077 -2.861153 2.615385
 O 0.417348 -4.459703 3.541091
 O 4.793438 -4.520555 -4.784708
 O 5.059904 5.021258 2.212921
 O 5.064107 -3.515740 3.511440
 O -2.880763 -2.657938 -3.748430
 O -1.199064 2.923326 -4.563407
 O 4.150835 2.091525 2.587633
 O 2.874654 1.302720 -3.869792
 O -4.164131 2.637043 -5.915407
 O 5.034708 -5.722556 -0.803914
 O 1.634156 -0.270995 -5.500752
 O -1.728022 0.198165 -5.172160
 O 1.227666 -0.727350 1.237803
 O 5.485668 -1.769792 -3.691741
 O 4.743495 -0.212746 -0.456195
 O 0.278427 4.359698 3.828077
 O -4.720784 0.611887 -4.028914
 O 0.908762 -3.822530 -0.285493
 O 4.545688 4.229422 -5.614583
 O 2.318723 6.004036 5.446296
 O -5.617902 5.056003 -1.783755
 O -0.280484 1.217798 -2.301292
 O -3.709592 -3.919926 -0.913844
 O -3.037643 5.631826 2.962008
 O -1.988854 3.074061 4.631763
 O -2.037618 -1.489626 -0.596529
 O -1.373367 -1.535014 5.309022
 O 0.400747 2.041656 5.676544
 O -4.732354 3.314648 1.286202
 O 3.196031 4.255056 -1.462378
 O 2.350012 -5.755122 -4.012340
 O -2.956972 4.363842 -3.018068
 O 4.413831 0.670257 6.407733
 O -2.270477 0.473815 2.055308
 O -0.056074 -1.946351 -3.399505
 O 0.044973 -3.457129 -5.686507
 O 6.196649 -5.978835 4.398714
 O 3.821557 -3.293734 0.383201
 O 5.379421 -0.693393 2.737557
 O 1.719807 3.870599 -4.375186
 O -1.484446 -6.164892 -0.314134
 O -5.237954 -1.764667 -5.976390
 O -4.600236 1.156630 -1.055224
 O 4.951854 2.795556 -3.066397
 O 2.178583 -0.508333 -1.360444
 O -4.851868 -2.413226 0.920550
 O 1.863721 2.653708 1.258551
 H -4.726203 -1.613636 -2.287050
 H -4.956090 -0.367491 -1.259653
 H 4.215176 -2.367461 5.864029
 H 3.072288 -2.456075 4.826655
 H -6.061906 5.380673 -5.601413
 H -5.499288 6.284678 -4.457405
 H 0.753782 3.264183 -1.865551
 H 1.504982 4.206662 -1.006401
 H -5.129259 0.208786 3.203747
 H -5.193346 0.933903 4.647472
 H -0.157448 6.712568 5.166289
 H 0.973198 6.074771 5.963981
 H -1.448281 -5.565627 -2.033128
 H -0.290694 -6.240945 -2.806368
 H 2.844414 1.257179 3.681833
 H 1.863205 1.316436 4.945091
 H -3.417097 -5.491686 6.635074
 H -1.997147 -5.900574 6.224909
 H 2.441223 -1.771788 2.352302
 H 3.155096 -3.150489 2.494307
 H 3.129802 -6.795602 2.308097
 H 1.612102 -6.474897 2.646578
 H -3.085995 -4.338507 4.878103
 H -4.576327 -3.757865 4.932471
 H -4.716181 -7.355628 0.643628
 H -4.693339 -6.236946 -0.326208
 H -3.533188 -4.215108 -3.712600
 H -2.597460 -5.299360 -3.326320
 H 2.391659 -2.365967 -2.249797
 H 2.469962 -3.493968 -1.288646
 H -2.628298 2.745354 -1.195668
 H -1.820989 3.143661 -0.100352
 H -1.310751 -3.480208 1.892515
 H -1.233996 -1.951002 2.253239
 H 1.339921 -4.139119 3.503865
 H -0.121388 -3.630456 3.424271
 H 5.205957 -5.100398 -5.455357
 H 4.904135 -3.588475 -5.057018
 H 5.621059 5.570440 2.829122
 H 5.692884 4.429789 1.760286
 H 5.512796 -2.745179 3.083126
 H 4.185070 -3.123261 3.663659
 H -1.923629 -2.550197 -3.472439
 H -3.011880 -2.026578 -4.478389
 H -0.264121 2.825111 -4.284376
 H -1.446532 1.990724 -4.806970
 H 4.755642 2.657065 3.103464
 H 3.440354 2.705112 2.287248
 H 2.227138 0.687460 -4.343928
 H 2.333528 2.128508 -3.936741
 H -4.436453 2.184543 -5.087862
 H -3.348145 2.255209 -6.268245
 H 5.659630 -6.020505 -0.117029
 H 5.370180 -6.200283 -1.592543
 H 2.189407 -0.842561 -6.094027
 H 0.837340 -0.092126 -6.028937
 H -1.453107 -0.227138 -6.044742
 H -2.648112 -0.132175 -5.119945
 H 1.125038 0.209650 1.504594
 H 1.570603 -0.669290 0.296635
 H 4.909307 -2.377657 -3.182373
 H 6.274916 -1.769978 -3.122494
 H 4.991315 0.615700 -0.935648
 H 5.463211 -0.833541 -0.760973
 H 0.036910 4.946877 4.603831
 H -0.592449 4.347675 3.364355
 H -3.811755 0.830278 -3.764865
 H -5.359798 0.958766 -3.388713
 H 0.494114 -4.248731 -1.070750
 H 0.732020 -2.863118 -0.399649
 H 3.849044 4.913359 -5.498427
 H 4.356981 3.884321 -6.508816
 H 2.446016 5.657379 4.486556
 H 2.565077 6.944802 5.373674
 H -5.829613 4.265676 -2.324703
 H -4.992267 5.563387 -2.361381
 H -0.551443 0.873983 -1.433335
 H -0.344888 0.416662 -2.851732
 H -3.367733 -4.837586 -0.843609
 H -4.280104 -3.638227 -0.149503
 H -3.968169 5.948307 2.959007
 H -2.791572 5.823793 3.892946
 H -2.830637 3.419435 4.256044
 H -1.984221 3.508951 5.515000
 H -2.552078 -2.180370 -1.070992
 H -2.065175 -1.745168 0.338714
 H -2.197467 -1.852839 4.866891
 H -0.869176 -2.364462 5.472812
 H -0.278832 1.701118 5.067702
 H 0.329242 2.974906 5.314746
 H -5.152247 2.864526 2.059939
 H -3.826269 2.941395 1.397197
 H 3.778938 4.859530 -0.952184
 H 3.760107 3.772820 -2.131053
 H 2.760135 -5.573779 -4.869706
 H 2.645768 -4.975746 -3.481505
 H -2.839143 3.556644 -3.557325
 H -2.102163 4.499588 -2.574638
 H 3.994118 1.015713 7.213341
 H 3.658048 0.588810 5.754799
 H -1.485752 1.071568 2.214991
 H -2.721064 0.429384 2.948636
 H -0.347336 -1.031600 -3.603242
 H 0.114797 -2.296388 -4.313031
 H -0.590685 -4.119514 -6.011684
 H 0.858078 -3.970862 -5.580572
 H 6.664308 -5.894294 5.256990
 H 6.178768 -5.064489 4.045748
 H 4.639883 -3.771600 0.620928
 H 3.856013 -3.437199 -0.587787
 H 4.899707 -0.464206 1.900006
 H 4.733066 -0.797714 3.463844
 H 1.713205 3.923577 -5.349663
 H 2.220943 4.695264 -4.129474
 H -0.518241 -6.271862 -0.255749
 H -1.735768 -5.906465 0.591051
 H -5.857586 -1.883057 -5.217165
 H -4.863146 -2.651881 -6.092079
 H -3.781001 1.197625 -0.514912
 H -5.162694 1.825351 -0.610400
 H 5.117686 3.350731 -3.864146
 H 4.135603 2.302359 -3.396918
 H 3.100707 -0.415174 -1.037417
 H 2.003378 0.259855 -1.945207
 H -5.334220 -1.594308 1.153552
 H -4.824961 -2.862857 1.794406
 H 1.116584 2.751441 1.868489
 H 1.438812 2.858762 0.368037
K_POINTS
 1
0.0 0.0 0.0 1.0