
&control
    calculation='scf'
    pseudo_dir = './',
    outdir='./outputs',
    disk_io='high'
/
&system
    ibrav= 1, celldm(1)=20.000000, nat=  192, ntyp= 2,
    ecutwfc = 30.0, nosym=.true., occupations='smearing',
    smearing='m-v', degauss=0.025
/
&electrons
    conv_thr =  1.0d-8,
    mixing_beta = 0.7
/
&ions
    pot_extrapolation='second-order'
    wfc_extrapolation='second-order'
    ion_temperature = 'andersen'
    tempw = 1000

/
ATOMIC_SPECIES
 H  1.01  H.blyp-hgh.UPF
 O  16.0  O.blyp-hgh.UPF
ATOMIC_POSITIONS bohr
 O -5.238138 -1.545211 -1.184291
 O 3.996884 -2.212461 5.402671
 O -5.718928 5.215911 -5.570863
 O -0.156937 3.547811 -1.584126
 O -4.728525 0.694618 3.832330
 O -0.242615 5.420922 5.176661
 O -0.133306 -5.365841 -3.402604
 O 2.266506 0.351546 3.704127
 O -2.860343 -5.302797 5.615553
 O 1.855445 -3.050078 1.600086
 O 2.499101 -6.063329 2.904714
 O -4.244202 -3.056993 4.336465
 O -4.417081 -5.973060 0.712745
 O -3.553346 -5.678686 -3.615060
 O 2.027534 -2.741467 -2.089454
 O -1.741960 2.533285 1.501765
 O -1.016086 -1.376709 1.646018
 O 0.266843 -4.234782 3.627745
 O 5.448040 -4.099733 -4.937454
 O 5.652262 4.789990 2.181496
 O 6.043170 -2.948416 3.257367
 O -3.223979 -3.041959 -3.798433
 O -0.919183 2.566772 -4.933097
 O 3.862610 2.347362 2.823805
 O 2.317427 1.276261 -3.115925
 O -4.930232 2.876189 -6.116464
 O 4.422628 -5.933269 -1.257764
 O 1.936998 -1.328403 -4.576057
 O -2.022297 0.272768 -4.828557
 O 0.834922 -0.316645 0.611713
 O 4.796090 -1.771684 -3.814758
 O 5.176918 0.051315 -0.000101
 O -0.365192 4.435266 1.812493
 O -5.330483 0.722327 -3.984429
 O 0.737994 -3.789678 -0.334914
 O 4.638097 3.385801 -4.253052
 O 3.581936 5.493789 5.799336
 O -5.052325 3.580772 -1.713489
 O -0.427947 1.041802 -1.558519
 O -2.952191 -3.275957 -1.209048
 O -2.591422 5.443221 3.405843
 O -1.487139 2.788803 3.732520
 O -2.647254 -0.197763 -0.650466
 O -1.514343 -2.231512 4.937272
 O 0.783420 1.752407 4.835889
 O -4.853018 3.437085 1.460506
 O 2.759950 3.879274 -0.524108
 O 2.668577 -5.939118 -3.534638
 O -2.683381 4.606046 -2.310767
 O 5.731402 0.499942 5.253069
 O -3.177884 0.148677 1.961674
 O -0.624203 -2.458119 -2.236069
 O 0.028613 -3.186570 -5.509908
 O 5.658857 -5.980788 4.473121
 O 5.192028 -2.951088 -0.232612
 O 4.728096 -0.693427 2.390286
 O 1.024594 4.301264 -4.388372
 O -0.563351 -5.726575 0.467787
 O -5.595194 -1.323642 -5.810470
 O -4.627795 1.511496 -0.962999
 O 5.237600 1.730494 -2.858964
 O 2.674301 -0.253270 -0.914861
 O -5.312197 -1.161982 1.171587
 O 1.492561 2.761414 1.414076
 H -4.725821 -1.814997 -0.405414
 H -4.581855 -1.518593 -1.898354
 H 3.493486 -2.998859 5.666994
 H 3.315329 -1.577492 5.126070
 H -6.197458 4.834207 -4.816821
 H -5.998822 4.670252 -6.323741
 H 0.338321 3.293981 -0.785984
 H 0.415097 4.199580 -2.020308
 H -5.421360 0.015662 3.784530
 H -5.119762 1.385492 4.392113
 H 0.212091 6.279317 5.160912
 H -0.231091 5.163100 6.113416
 H -0.358038 -5.660811 -2.505755
 H -0.743334 -5.862391 -3.971189
 H 2.400945 1.194688 3.237678
 H 1.395619 0.050995 3.398557
 H -3.497565 -5.613673 6.280287
 H -2.008165 -5.319534 6.080772
 H 1.943063 -2.081312 1.624838
 H 2.768554 -3.373750 1.650061
 H 3.288679 -6.191689 2.354196
 H 1.834750 -6.649306 2.504881
 H -3.653596 -3.509511 3.713265
 H -4.243069 -2.134033 4.034462
 H -3.476923 -6.146131 0.543296
 H -4.561718 -5.083772 0.348031
 H -4.461990 -5.645268 -3.275370
 H -3.501115 -6.540879 -4.057945
 H 2.153764 -1.778859 -2.032663
 H 2.482255 -3.084967 -1.304021
 H -1.611436 3.131141 0.749399
 H -1.361607 1.690450 1.202879
 H -0.392936 -1.954891 1.177518
 H -0.920531 -1.631428 2.578729
 H 0.873724 -3.559400 3.970619
 H -0.354666 -3.731698 3.076940
 H 5.895447 -4.704306 -5.552149
 H 6.173902 -3.678573 -4.449857
 H 5.444390 5.602522 2.674113
 H 5.920773 5.105785 1.303760
 H 5.326436 -2.699218 2.651148
 H 6.579546 -3.575747 2.747414
 H -2.411348 -2.836398 -4.288903
 H -3.930037 -2.951581 -4.458205
 H -0.517681 2.974251 -4.147775
 H -0.599708 1.649290 -4.912041
 H 4.668990 2.474943 3.349941
 H 3.431827 3.217345 2.838051
 H 2.896368 1.072688 -3.868883
 H 2.183651 2.236441 -3.171087
 H -4.982184 2.513987 -5.216035
 H -3.989928 3.090265 -6.231930
 H 4.222909 -5.040724 -1.587038
 H 5.379243 -5.913977 -1.093786
 H 2.744068 -1.089918 -5.062123
 H 1.215761 -0.997934 -5.136199
 H -2.147889 -0.462115 -5.449816
 H -2.862216 0.758402 -4.864450
 H 1.341602 0.493374 0.779053
 H 1.129500 -0.595125 -0.269924
 H 4.020060 -2.197781 -3.412120
 H 5.434545 -1.710371 -3.084661
 H 5.099687 1.015254 -0.080317
 H 5.923501 -0.177809 -0.585223
 H -0.551064 4.090654 2.704377
 H -0.309289 5.396222 1.935253
 H -4.711060 1.209209 -3.416710
 H -5.990819 0.375443 -3.360759
 H 0.756732 -4.701263 -0.663208
 H 0.681021 -3.889629 0.628297
 H 3.721473 3.621646 -4.040545
 H 4.559942 2.807441 -5.028964
 H 3.196107 4.885255 5.148203
 H 2.873255 6.135581 5.966440
 H -5.856760 3.904573 -1.277206
 H -4.824778 4.283620 -2.344496
 H -0.000203 0.383149 -2.128845
 H -1.294660 1.180958 -1.972026
 H -3.147606 -3.325960 -2.162480
 H -2.808073 -4.199270 -0.950694
 H -3.188450 5.883174 2.779216
 H -2.457145 6.103185 4.108297
 H -1.577578 1.826279 3.816054
 H -2.384048 3.093014 3.522171
 H -2.387973 -1.057494 -0.282850
 H -2.794600 0.355486 0.134093
 H -2.363793 -2.096707 5.387186
 H -1.332122 -3.177635 5.062085
 H 1.637931 1.743523 5.294777
 H 0.178314 2.179660 5.465929
 H -5.357913 3.359894 2.285780
 H -3.940260 3.224219 1.719428
 H 3.362997 4.545952 -0.155126
 H 2.810061 4.025317 -1.482054
 H 3.578062 -6.042990 -3.861261
 H 2.278672 -5.277151 -4.128348
 H -2.574199 3.899515 -2.968106
 H -2.148174 4.305308 -1.557061
 H 5.944990 0.256386 6.170578
 H 4.762628 0.460830 5.217863
 H -2.947019 -0.651887 2.457327
 H -3.609764 0.718121 2.621319
 H -0.116276 -3.277608 -2.339747
 H -0.222803 -2.034177 -1.462118
 H 0.432478 -3.502706 -4.684086
 H 0.758607 -3.198645 -6.148817
 H 4.985034 -5.468973 4.948334
 H 6.490150 -5.744886 4.915213
 H 5.654527 -3.585337 0.337800
 H 4.570817 -2.507231 0.366583
 H 4.200774 -0.557489 1.586717
 H 4.373071 -0.041099 3.015511
 H 1.452568 3.705323 -5.024265
 H 1.753272 4.854216 -4.050445
 H -0.890207 -6.341299 -0.209479
 H -1.356442 -5.245116 0.753027
 H -5.372346 -2.032559 -6.436446
 H -4.734512 -1.001654 -5.496944
 H -3.857000 2.093293 -1.048634
 H -4.834058 1.536586 -0.014524
 H 5.771123 2.541328 -2.890038
 H 4.404262 2.012430 -2.450323
 H 3.458110 -0.701314 -0.555663
 H 3.041138 0.405747 -1.527093
 H -5.913514 -0.571531 1.656022
 H -4.861911 -1.662161 1.869046
 H 1.497748 3.725353 1.531810
 H 2.305381 2.578941 0.915532
K_POINTS
 1
0.0 0.0 0.0 1.0