
&control
    calculation='scf'
    pseudo_dir = './',
    outdir='./outputs',
    disk_io='high'
/
&system
    ibrav= 1, celldm(1)=20.000000, nat=  192, ntyp= 2,
    ecutwfc = 30.0, nosym=.true., occupations='smearing',
    smearing='m-v', degauss=0.025
/
&electrons
    conv_thr =  1.0d-8,
    mixing_beta = 0.7
/
&ions
    pot_extrapolation='second-order'
    wfc_extrapolation='second-order'
    ion_temperature = 'andersen'
    tempw = 1000

/
ATOMIC_SPECIES
 H  1.01  H.blyp-hgh.UPF
 O  16.0  O.blyp-hgh.UPF
ATOMIC_POSITIONS bohr
 O -5.307424 -1.320930 -1.440974
 O 3.011553 -2.614024 5.867875
 O -5.453595 6.216956 -5.484611
 O 0.989452 3.593357 -0.934679
 O -5.072195 1.135952 3.593141
 O -0.101647 6.263117 6.121342
 O -0.817530 -5.392280 -2.538924
 O 2.575486 0.843616 4.473715
 O -2.933978 -5.978487 5.906810
 O 2.628883 -2.523684 3.150339
 O 2.457106 -6.368849 2.915576
 O -3.532332 -3.656942 4.401472
 O -4.721497 -6.636436 0.745585
 O -3.641664 -5.103383 -3.545284
 O 2.785053 -3.307921 -2.120100
 O -1.968526 2.431216 -0.662487
 O -1.342419 -2.975660 2.532575
 O 0.561488 -4.413365 3.495751
 O 4.769817 -4.503016 -4.782762
 O 5.213265 4.900167 2.158691
 O 5.026871 -3.614981 3.465555
 O -2.735812 -2.605355 -3.587962
 O -1.241204 2.956799 -4.488641
 O 4.108501 1.964676 2.471917
 O 2.881578 1.213750 -3.827904
 O -4.256841 2.688930 -5.690734
 O 5.112588 -5.734862 -0.702805
 O 1.437564 -0.270740 -5.572860
 O -1.761908 0.373646 -5.178890
 O 1.197138 -0.816802 1.339438
 O 5.638436 -1.842727 -3.897403
 O 4.638739 -0.192066 -0.665460
 O 0.346079 4.204604 4.024675
 O -4.631724 0.703358 -3.905451
 O 0.704426 -3.801161 -0.389980
 O 4.752791 4.156826 -5.833711
 O 2.441498 6.176738 5.413491
 O -5.509611 5.059473 -2.036271
 O -0.199570 1.242868 -2.367564
 O -3.737289 -3.909257 -0.999109
 O -3.046661 5.658235 2.952722
 O -1.993015 3.157578 4.479585
 O -1.846515 -1.646159 -0.539598
 O -1.349745 -1.650559 5.334066
 O 0.164222 2.229377 5.630486
 O -4.818112 3.187758 1.335849
 O 3.253681 4.344335 -1.552414
 O 2.017657 -5.783908 -4.007067
 O -3.061512 4.341184 -3.038156
 O 4.503278 0.717499 6.568147
 O -2.001786 0.522487 2.175899
 O -0.024031 -1.870923 -3.622378
 O 0.054464 -3.500292 -5.777041
 O 6.339084 -5.998853 4.230659
 O 3.682110 -3.133246 0.629043
 O 5.681357 -0.642968 2.817699
 O 1.684775 3.828898 -4.389962
 O -1.532264 -6.389086 -0.285518
 O -5.299086 -1.745378 -5.974690
 O -4.472557 1.307330 -1.119319
 O 5.017683 3.239866 -3.319450
 O 2.026888 -0.600662 -1.495098
 O -4.868799 -2.855954 1.192253
 O 1.830243 2.763829 1.323760
 H -4.621874 -1.652758 -2.078977
 H -4.976807 -0.432886 -1.136103
 H 3.744517 -2.189274 6.373344
 H 3.105101 -2.254707 4.947164
 H -5.748832 5.303770 -5.290536
 H -4.873678 6.539310 -4.721284
 H 0.476328 2.844380 -1.347583
 H 1.890723 3.673120 -1.375463
 H -5.604813 0.502069 3.032308
 H -5.321598 0.785988 4.481934
 H -0.076205 6.749302 5.260787
 H 0.874790 6.119469 6.252617
 H -1.169215 -5.579125 -1.623999
 H 0.100317 -5.677928 -2.706301
 H 3.297126 1.183696 3.896634
 H 2.101388 1.629548 4.784230
 H -3.555528 -5.758597 6.631924
 H -2.136497 -6.325174 6.348340
 H 1.914107 -2.017310 2.677743
 H 2.972160 -3.237481 2.577848
 H 2.722975 -7.235149 2.529965
 H 1.482974 -6.512374 2.936431
 H -2.950047 -4.415793 4.639829
 H -4.359875 -4.156710 4.217934
 H -4.786440 -7.608338 0.843266
 H -5.040367 -6.444712 -0.157292
 H -3.402872 -4.122620 -3.482660
 H -2.848962 -5.585749 -3.841170
 H 2.221365 -2.534428 -2.332370
 H 2.137271 -3.810601 -1.569468
 H -2.563626 2.322147 -1.465666
 H -1.513429 3.223426 -1.069390
 H -1.698370 -3.483354 1.798150
 H -1.235708 -2.045103 2.196651
 H 1.412457 -4.119041 3.128258
 H -0.189840 -4.012832 2.994977
 H 5.649835 -4.575190 -5.215675
 H 4.510223 -3.646323 -5.177262
 H 5.193682 5.763296 2.594556
 H 6.135105 4.655534 2.276665
 H 5.643878 -2.855326 3.398945
 H 4.315119 -3.235538 4.016576
 H -1.775716 -2.432473 -3.803428
 H -3.308672 -2.125799 -4.209921
 H -0.429811 3.217533 -4.021312
 H -1.322338 1.976591 -4.613757
 H 4.796014 2.482231 2.923751
 H 3.481193 2.622922 2.064498
 H 2.511699 0.431242 -4.317576
 H 2.252804 1.913942 -4.120568
 H -5.014911 2.064973 -5.632831
 H -3.444925 2.149641 -5.742387
 H 5.798425 -6.057448 -0.086809
 H 5.175258 -6.336969 -1.473582
 H 1.965817 -0.709427 -6.269966
 H 0.865355 0.370397 -6.055243
 H -1.464529 -0.483071 -5.558119
 H -2.722245 0.350869 -5.036074
 H 1.119900 0.014440 1.838377
 H 1.340317 -0.605810 0.393432
 H 5.303287 -2.724272 -3.583963
 H 6.220441 -1.570718 -3.139861
 H 5.096151 0.635883 -0.927375
 H 5.166179 -0.909064 -1.098095
 H 0.178274 4.862459 4.733898
 H -0.584243 3.789372 4.100696
 H -4.092849 0.684023 -3.085321
 H -5.472249 1.082291 -3.553257
 H 0.253321 -3.971707 -1.247352
 H 0.390083 -2.901966 -0.162225
 H 4.025386 4.779680 -5.684916
 H 4.600318 3.983091 -6.775639
 H 2.471413 6.059362 4.377175
 H 2.768151 7.038748 5.717606
 H -5.666552 4.308209 -2.645732
 H -4.871301 5.561215 -2.598570
 H -0.639464 0.628424 -1.737018
 H -0.787766 1.259188 -3.148406
 H -4.398551 -4.606987 -1.223485
 H -4.046416 -3.578879 -0.110459
 H -3.833744 6.238571 3.095028
 H -2.628558 5.658026 3.846349
 H -2.662451 3.848032 4.277060
 H -1.971224 3.141376 5.458567
 H -2.284359 -2.289026 -1.147836
 H -2.389804 -1.670815 0.275112
 H -2.087637 -1.721786 4.697061
 H -0.815545 -2.450487 5.147079
 H -0.120429 2.286015 4.690868
 H -0.294884 2.938550 6.148814
 H -5.395163 2.634085 1.904971
 H -4.152780 3.586710 1.967060
 H 3.800534 4.796109 -0.872999
 H 3.730500 4.225804 -2.399622
 H 2.510753 -5.930161 -4.838475
 H 2.451335 -5.037303 -3.526347
 H -3.216461 4.113088 -3.975744
 H -2.251558 4.913695 -2.957962
 H 3.865759 1.211293 7.160704
 H 3.969029 0.612629 5.762843
 H -1.734464 1.195932 1.475989
 H -2.842359 0.910077 2.481948
 H 0.422693 -1.071607 -3.261777
 H 0.267280 -1.929620 -4.554127
 H -0.409389 -4.319073 -6.030514
 H 0.928392 -3.822022 -5.487421
 H 6.804449 -6.243167 5.064626
 H 5.808246 -5.206371 4.499659
 H 4.112737 -3.880978 1.079267
 H 3.680638 -3.304526 -0.334946
 H 4.977745 -0.929303 2.197137
 H 5.278889 -0.320680 3.650265
 H 1.807379 4.035196 -5.337031
 H 1.950980 4.700319 -4.036971
 H -0.593462 -6.367527 0.003331
 H -2.029862 -6.457505 0.558030
 H -5.809625 -1.880682 -5.120417
 H -4.518675 -2.332858 -5.977207
 H -3.637166 1.182806 -0.614570
 H -4.925713 1.991861 -0.575249
 H 5.181664 3.367266 -4.281846
 H 4.891669 2.280095 -3.194053
 H 2.991679 -0.349390 -1.359165
 H 1.559622 0.264519 -1.476667
 H -4.953784 -2.050599 0.614641
 H -4.249038 -2.597704 1.914840
 H 1.221098 2.893951 2.073337
 H 1.370668 3.059315 0.472032
K_POINTS
 1
0.0 0.0 0.0 1.0