
&control
    calculation='scf'
    pseudo_dir = './',
    outdir='./outputs',
    disk_io='high'
/
&system
    ibrav= 1, celldm(1)=20.000000, nat=  192, ntyp= 2,
    ecutwfc = 30.0, nosym=.true., occupations='smearing',
    smearing='m-v', degauss=0.025
/
&electrons
    conv_thr =  1.0d-8,
    mixing_beta = 0.7
/
&ions
    pot_extrapolation='second-order'
    wfc_extrapolation='second-order'
    ion_temperature = 'andersen'
    tempw = 1000

/
ATOMIC_SPECIES
 H  1.01  H.blyp-hgh.UPF
 O  16.0  O.blyp-hgh.UPF
ATOMIC_POSITIONS bohr
 O -5.287130 -1.401303 -1.368067
 O 2.897593 -2.638314 5.981166
 O -5.463156 6.308347 -5.443520
 O 1.064122 3.478780 -0.951471
 O -5.066402 1.270880 3.474039
 O -0.247564 6.248331 6.062891
 O -0.882639 -5.373620 -2.538237
 O 2.729468 0.961525 4.460121
 O -2.801694 -6.153535 5.891504
 O 2.515022 -2.567019 3.209632
 O 2.385563 -6.400646 2.742913
 O -3.478901 -3.657439 4.307999
 O -4.784141 -6.791532 0.770395
 O -3.783708 -5.065692 -3.541612
 O 2.751864 -3.421543 -2.118068
 O -2.028734 2.634295 -0.768209
 O -1.437507 -3.020531 2.366252
 O 0.644637 -4.553841 3.499914
 O 4.738457 -4.480663 -4.780284
 O 5.295977 4.788239 2.150636
 O 5.101784 -3.750152 3.490857
 O -2.642191 -2.485006 -3.455840
 O -1.281095 2.994770 -4.491217
 O 4.134629 1.859738 2.425092
 O 2.884461 1.195802 -3.757142
 O -4.375355 2.784498 -5.547926
 O 5.095561 -5.732098 -0.597129
 O 1.200034 -0.280368 -5.638591
 O -1.871177 0.524578 -5.130779
 O 1.105939 -0.912097 1.467345
 O 5.709072 -1.956914 -3.967047
 O 4.524549 -0.172545 -0.849763
 O 0.425238 4.215418 4.060921
 O -4.529587 0.710461 -3.704875
 O 0.447864 -3.797005 -0.550947
 O 4.934201 4.130096 -6.048889
 O 2.715170 6.326697 5.559831
 O -5.469111 5.120914 -2.323007
 O -0.136423 1.166471 -2.467231
 O -3.794416 -3.925356 -1.087243
 O -3.029857 5.632077 3.004319
 O -2.146602 3.261153 4.358127
 O -1.695319 -1.769836 -0.495750
 O -1.371169 -1.666645 5.325693
 O 0.130395 2.137307 5.736056
 O -4.855421 3.021088 1.461041
 O 3.376985 4.462300 -1.679748
 O 1.769005 -5.773155 -3.997812
 O -3.091969 4.344875 -3.096152
 O 4.682064 0.771201 6.604259
 O -1.825682 0.720778 2.190863
 O 0.013022 -1.766101 -3.745405
 O 0.097307 -3.546054 -5.872670
 O 6.500247 -5.957992 4.116193
 O 3.637449 -3.024663 0.893169
 O 5.868241 -0.743748 2.881264
 O 1.640727 3.804002 -4.384409
 O -1.531302 -6.664081 -0.125539
 O -5.257153 -1.714178 -6.099490
 O -4.348904 1.426528 -1.054857
 O 5.186893 3.540097 -3.578791
 O 1.838894 -0.640938 -1.523463
 O -4.813243 -3.121927 1.509512
 O 1.783380 2.846382 1.483787
 H -4.414568 -1.821702 -1.201283
 H -5.066716 -0.441661 -1.281342
 H 3.090763 -1.791826 6.427049
 H 2.495567 -2.487580 5.078938
 H -5.651986 5.453276 -5.003063
 H -4.816008 6.801219 -4.840238
 H 0.702117 2.579966 -0.941643
 H 1.924303 3.463409 -1.457519
 H -5.848039 0.811516 3.049245
 H -5.157547 0.962528 4.389127
 H -0.083244 6.878241 5.324560
 H 0.604206 6.292657 6.539452
 H -0.958489 -5.746644 -1.623821
 H 0.078209 -5.255912 -2.668271
 H 3.049529 1.260625 3.559143
 H 2.185648 1.724395 4.777385
 H -3.692534 -6.379594 6.267738
 H -2.042034 -6.510266 6.403117
 H 1.912846 -1.836971 2.915764
 H 2.962100 -2.475365 2.283915
 H 2.599922 -7.350842 2.728671
 H 1.422403 -6.177718 2.841395
 H -2.883093 -4.366757 4.633246
 H -4.059203 -4.191599 3.707769
 H -5.047513 -7.731708 0.925139
 H -4.750473 -6.707086 -0.201579
 H -3.232263 -4.268049 -3.265615
 H -3.046551 -5.698336 -3.607045
 H 2.524717 -2.494329 -2.360685
 H 1.958902 -3.715994 -1.573529
 H -2.561989 2.313986 -1.489704
 H -1.193687 3.093546 -0.907098
 H -2.029701 -3.159212 1.574894
 H -0.910198 -2.255441 2.110237
 H 1.389306 -3.912299 3.291220
 H -0.056099 -4.101592 2.979974
 H 5.699883 -4.510745 -4.959201
 H 4.293565 -3.972543 -5.495875
 H 4.789147 5.560576 2.517093
 H 6.212395 5.077299 2.421036
 H 5.754125 -3.029352 3.372696
 H 4.583490 -3.406553 4.247879
 H -1.713565 -2.226022 -3.711918
 H -3.229728 -2.100726 -4.134575
 H -0.450118 3.451577 -4.196057
 H -0.973615 2.081579 -4.722374
 H 4.642827 2.700719 2.543167
 H 3.460773 2.069510 1.724367
 H 2.448072 0.412508 -4.169288
 H 2.355296 2.019249 -3.851673
 H -5.050172 2.313762 -6.066893
 H -3.769229 2.044036 -5.346203
 H 5.456627 -6.136923 0.219264
 H 5.699985 -6.054125 -1.310505
 H 1.526660 -0.761554 -6.417381
 H 1.069387 0.655327 -5.956378
 H -1.580231 -0.309258 -5.599704
 H -2.807287 0.371779 -4.869061
 H 1.251443 -0.035457 1.875470
 H 1.660353 -0.846910 0.648391
 H 5.556417 -2.887522 -3.738479
 H 5.676039 -1.410000 -3.164213
 H 5.069332 0.623841 -0.883264
 H 5.038807 -0.886377 -1.261900
 H 0.621839 4.866426 4.775951
 H -0.629879 4.023097 4.086732
 H -4.629287 0.901210 -2.740734
 H -5.393352 0.991156 -4.068578
 H -0.390749 -3.792565 -1.066277
 H 0.293184 -3.081703 0.102531
 H 4.299916 4.892519 -6.050586
 H 5.124278 3.897279 -6.979427
 H 2.599642 6.350675 4.551186
 H 3.023529 7.252522 5.657410
 H -5.729604 4.226220 -2.614101
 H -4.485692 5.149250 -2.450557
 H -0.761742 0.565747 -2.027078
 H -0.614421 1.917360 -2.905417
 H -4.559703 -3.987855 -1.687746
 H -4.026010 -4.003104 -0.116963
 H -3.797074 6.196068 2.800108
 H -2.642653 6.013463 3.815790
 H -2.818036 3.964071 4.243901
 H -2.392228 2.705982 5.130066
 H -2.083174 -2.396849 -1.155697
 H -2.539058 -1.445032 -0.120371
 H -1.951416 -1.865413 4.569640
 H -0.651309 -2.324361 5.393344
 H 0.188837 2.825383 5.009221
 H -0.502662 2.443872 6.392748
 H -5.274474 2.290263 1.954364
 H -4.504605 3.590020 2.164865
 H 3.750880 4.972482 -0.933123
 H 4.184320 4.225401 -2.186529
 H 2.467948 -5.957967 -4.651308
 H 2.291440 -5.258974 -3.339932
 H -3.453056 4.351299 -4.011245
 H -2.705174 5.223908 -3.055332
 H 4.114923 0.947923 7.382639
 H 4.053501 0.893859 5.829446
 H -1.862642 0.438452 1.252355
 H -2.798054 0.774783 2.399886
 H 0.741901 -1.576841 -3.117704
 H 0.326603 -1.644023 -4.664208
 H -0.247357 -4.330471 -5.397006
 H 0.993149 -3.450408 -5.484675
 H 6.801346 -6.380505 4.938285
 H 5.660755 -5.478827 4.263482
 H 4.006676 -3.909229 1.071675
 H 3.360017 -3.088487 -0.059622
 H 5.066372 -1.020687 2.388625
 H 5.379362 -0.191685 3.528581
 H 1.806840 3.984348 -5.323181
 H 1.367962 4.608095 -3.880942
 H -0.909691 -6.660980 0.626407
 H -2.440100 -6.753706 0.229182
 H -5.683343 -1.784061 -5.208119
 H -4.476916 -2.290475 -6.160546
 H -3.643233 1.072610 -0.483772
 H -4.565998 2.302405 -0.663109
 H 4.770023 3.326621 -4.452671
 H 4.981256 2.713678 -3.092863
 H 2.785906 -0.416122 -1.437202
 H 1.419652 0.178017 -1.872834
 H -5.061593 -2.839795 0.601177
 H -4.169338 -2.472079 1.855074
 H 1.252827 3.239907 2.205968
 H 1.636199 3.404351 0.657180
K_POINTS
 1
0.0 0.0 0.0 1.0