
&control
    calculation='scf'
    pseudo_dir = './',
    outdir='./outputs',
    disk_io='high'
/
&system
    ibrav= 1, celldm(1)=20.000000, nat=  192, ntyp= 2,
    ecutwfc = 30.0, nosym=.true., occupations='smearing',
    smearing='m-v', degauss=0.025
/
&electrons
    conv_thr =  1.0d-8,
    mixing_beta = 0.7
/
&ions
    pot_extrapolation='second-order'
    wfc_extrapolation='second-order'
    ion_temperature = 'andersen'
    tempw = 1000

/
ATOMIC_SPECIES
 H  1.01  H.blyp-hgh.UPF
 O  16.0  O.blyp-hgh.UPF
ATOMIC_POSITIONS bohr
 O -5.286446 -1.480146 -1.112892
 O 2.723572 -2.676638 6.166101
 O -5.430734 6.432686 -5.328206
 O 1.095212 3.232602 -0.989121
 O -5.064888 1.420127 3.487421
 O -0.187238 6.140223 5.951255
 O -1.068486 -5.390814 -2.505268
 O 2.914189 1.121794 4.486421
 O -2.746821 -6.386590 5.711281
 O 2.236004 -2.492267 3.399757
 O 2.419027 -6.519430 2.555008
 O -3.403649 -3.644261 4.213569
 O -4.799727 -6.973190 0.623627
 O -3.903793 -4.880614 -3.595309
 O 2.628026 -3.599211 -2.022716
 O -2.053820 2.891196 -0.906238
 O -1.467763 -2.985272 2.074808
 O 0.651655 -4.782395 3.476610
 O 4.657629 -4.443315 -4.794238
 O 5.247267 4.729380 2.207156
 O 5.183455 -3.915026 3.589582
 O -2.512413 -2.318839 -3.252995
 O -1.237816 3.082478 -4.487105
 O 4.261098 1.793065 2.160830
 O 2.867408 1.198346 -3.614098
 O -4.467080 3.022656 -5.464943
 O 5.073065 -5.736620 -0.392299
 O 0.985339 -0.237606 -5.814052
 O -2.114131 0.661929 -5.096478
 O 0.980873 -0.953091 1.683983
 O 5.711699 -2.122448 -3.973607
 O 4.401240 -0.184246 -1.143645
 O 0.485083 4.300412 4.022360
 O -4.482041 0.652783 -3.454281
 O 0.120055 -3.783683 -0.737354
 O 5.103701 4.204410 -6.506661
 O 3.209469 6.515729 5.744803
 O -5.443857 5.263821 -2.493410
 O -0.017633 1.074614 -2.586787
 O -3.914545 -3.878122 -1.025143
 O -2.959247 5.624257 3.077755
 O -2.438001 3.364713 4.208367
 O -1.664608 -1.901487 -0.465645
 O -1.387505 -1.617538 5.293518
 O 0.292820 1.922394 5.910223
 O -4.823101 2.922668 1.552702
 O 3.601902 4.633632 -1.785759
 O 1.540491 -5.746066 -3.939919
 O -3.136982 4.442110 -3.137463
 O 5.007893 0.870048 6.597859
 O -1.641494 0.891967 2.042160
 O 0.037223 -1.724382 -3.782881
 O 0.242432 -3.668946 -5.885775
 O 6.785778 -6.054041 3.951786
 O 3.701884 -2.886877 1.125125
 O 5.925044 -0.961969 2.983663
 O 1.463771 3.761606 -4.306473
 O -1.563989 -7.044375 0.203286
 O -5.065292 -1.588300 -6.431364
 O -4.299020 1.549508 -0.830450
 O 5.347733 3.704413 -3.797924
 O 1.631782 -0.709217 -1.542248
 O -4.712502 -3.448347 1.883045
 O 1.762319 3.016172 1.809728
 H -4.669380 -2.196301 -0.838777
 H -4.693404 -0.849401 -1.596183
 H 2.728205 -1.685610 6.174987
 H 2.715849 -2.841264 5.178737
 H -5.884323 5.792398 -4.756501
 H -4.738076 6.931342 -4.762107
 H 1.532093 2.370245 -1.131416
 H 1.807716 3.883510 -1.236119
 H -5.341471 0.513590 3.139595
 H -4.456922 1.126306 4.185504
 H -0.241712 7.005321 5.480006
 H -0.010437 6.475894 6.855230
 H -0.806818 -6.044286 -1.833277
 H -0.261919 -5.307412 -3.060479
 H 3.392760 1.741933 3.866863
 H 1.967417 1.337096 4.608810
 H -3.317880 -7.176566 5.855024
 H -1.811694 -6.627946 5.981904
 H 1.901921 -1.641987 2.974729
 H 2.802154 -2.649022 2.547866
 H 1.613269 -7.071685 2.674841
 H 2.086935 -5.598196 2.630057
 H -3.486862 -4.245233 4.984808
 H -3.946651 -4.133605 3.549688
 H -5.212561 -7.861459 0.855460
 H -4.655106 -6.972730 -0.347536
 H -3.358433 -4.069632 -3.768389
 H -3.197749 -5.549602 -3.440308
 H 3.071780 -2.830127 -2.404406
 H 1.717586 -3.357006 -1.698679
 H -2.277354 3.349531 -1.736206
 H -1.353675 3.298427 -0.362489
 H -1.996296 -2.925767 1.225435
 H -0.690725 -2.440294 1.858336
 H 1.152581 -3.929384 3.562614
 H -0.208802 -4.420453 3.194317
 H 5.085854 -5.234665 -5.167595
 H 4.353172 -3.735812 -5.389669
 H 4.256817 4.796269 2.175549
 H 5.503928 5.319521 2.988733
 H 6.062214 -3.530715 3.375801
 H 4.868802 -3.246686 4.234603
 H -1.549240 -2.085759 -3.424136
 H -3.007142 -1.779069 -3.895839
 H -0.261012 2.997802 -4.629302
 H -1.384183 2.121179 -4.313304
 H 4.387321 2.752756 2.009642
 H 3.354242 1.577353 1.867983
 H 2.084243 0.813582 -4.032869
 H 2.761334 2.167155 -3.608641
 H -5.201383 2.732206 -6.039968
 H -4.623011 2.302727 -4.815981
 H 5.154043 -6.330927 0.392444
 H 5.958747 -5.795941 -0.796042
 H 0.525397 -0.628173 -6.590141
 H 0.544283 0.643517 -5.776479
 H -2.212974 0.181575 -5.959691
 H -2.544139 0.043190 -4.471956
 H 0.752066 -0.008427 1.531964
 H 1.444765 -1.098505 0.819837
 H 5.205092 -2.951968 -4.048986
 H 5.646910 -1.678379 -3.113409
 H 4.636039 0.660979 -0.739048
 H 5.006654 -0.805465 -0.719900
 H 0.699156 5.016501 4.674254
 H -0.384380 4.571245 3.569117
 H -4.841551 1.519116 -3.186814
 H -4.895046 0.376764 -4.297266
 H -0.830347 -4.007671 -0.810540
 H 0.136113 -3.482730 0.188005
 H 4.861998 5.058767 -6.928336
 H 5.609804 3.619686 -7.099053
 H 2.960626 6.451894 4.794930
 H 3.235209 7.494719 5.799820
 H -6.241913 5.018886 -2.970100
 H -4.760421 4.607616 -2.714763
 H -0.911590 0.666026 -2.621598
 H -0.101016 2.003447 -2.257744
 H -4.367098 -3.758186 -1.900571
 H -3.978998 -4.834621 -0.891125
 H -3.594890 5.712005 2.343899
 H -3.264020 6.213869 3.794312
 H -2.969298 4.138734 3.868218
 H -3.012003 2.591064 4.324204
 H -1.829128 -2.202965 -1.384979
 H -2.149873 -1.052419 -0.549284
 H -1.760070 -2.203600 4.605089
 H -1.257724 -2.171548 6.083860
 H 0.716258 2.663003 5.410235
 H -0.642314 2.168376 6.003358
 H -5.253849 2.209156 2.043425
 H -3.919675 3.004156 1.893622
 H 3.742586 5.541061 -1.442253
 H 4.244447 4.657871 -2.533830
 H 2.332243 -5.719240 -4.532121
 H 1.905224 -5.277284 -3.150820
 H -3.040721 4.049068 -4.036773
 H -2.198742 4.745695 -3.165554
 H 4.536371 0.705522 7.438690
 H 4.279637 1.196663 6.012703
 H -1.624396 -0.080528 1.972517
 H -2.388153 0.938310 2.659376
 H 0.628017 -1.929718 -3.028507
 H 0.251637 -0.824270 -4.132137
 H -0.077752 -3.219181 -5.066451
 H 1.071962 -3.108267 -6.007029
 H 6.627226 -5.941043 4.923384
 H 6.489639 -5.192221 3.617787
 H 4.048941 -3.801305 0.999257
 H 3.069907 -2.864158 0.363785
 H 5.439734 -1.051734 2.145557
 H 5.202209 -1.082842 3.626279
 H 1.742822 3.882066 -5.236235
 H 1.725387 4.589103 -3.810066
 H -1.729050 -7.052005 1.169181
 H -2.404487 -7.298849 -0.227358
 H -5.526871 -1.834063 -5.595334
 H -4.699782 -2.435146 -6.782615
 H -3.477400 1.225387 -0.419881
 H -4.303566 2.485167 -0.576198
 H 5.203107 3.868037 -4.778016
 H 4.798643 2.938471 -3.558530
 H 2.522337 -0.318526 -1.527062
 H 1.089680 -0.114033 -2.111617
 H -5.671869 -3.516225 1.709894
 H -4.545672 -2.524651 2.163666
 H 1.113765 3.412455 2.442891
 H 1.363395 3.185872 0.908973
K_POINTS
 1
0.0 0.0 0.0 1.0