&control
    calculation='md'
    restart_mode='from_scratch',
    pseudo_dir = './',
    outdir='./outputs',
    dt=100,
    nstep=100,
    disk_io='high'
/
&system
    ibrav= 1, celldm(1)=20.00, nat=  2, ntyp= 1,
    ecutwfc = 30.0, nosym=.true.
/
&electrons
    conv_thr =  1.0d-8,
    mixing_beta = 0.7
    scf_must_converge = .false.
/
&ions
    pot_extrapolation='second-order'
    wfc_extrapolation='second-order'
    ion_temperature = 'andersen'
    tempw = 1000

/
ATOMIC_SPECIES
 Au  28.086  Au.blyp-d-hgh.UPF
ATOMIC_POSITIONS bohr
 Au 0.0 0.0 0.0
 Au 0.0 0.0 4.0
K_POINTS
 1
0.0 0.0 0.0 1.0
