&control
    calculation='md'
    restart_mode='from_scratch',
    pseudo_dir = './',
    outdir='./outputs',
    dt=100,
    nstep=5000,
    disk_io='high'
/
&system
    ibrav= 1, celldm(1)=20.00, nat=  6, ntyp= 2,
    ecutwfc = 30.0, nosym=.true.
/
&electrons
    conv_thr =  1.0d-8,
    mixing_beta = 0.7
/
&ions
    pot_extrapolation='second-order'
    wfc_extrapolation='second-order'
    ion_temperature = 'andersen'
    tempw = 1000

/
ATOMIC_SPECIES
 H  1.01  H.blyp-hgh.UPF
 O  16.0  O.blyp-hgh.UPF
ATOMIC_POSITIONS bohr
 H 0.0 0.0 0.0
 H 0.0 6.0 3.0
 O 3.0 3.0 0.0
K_POINTS
 1
0.0 0.0 0.0 1.0
