&control
    calculation='md'
    restart_mode='from_scratch',
    pseudo_dir = './',
    outdir='./outputs',
    dt=100,
    nstep=1000,
    disk_io='high'
/
&system
    ibrav= 1, celldm(1)=20.000000, nat=  5, ntyp= 1,
    ecutwfc = 30.0, nosym=.true., occupations='smearing',
    smearing='m-v', degauss=0.025
/
&electrons
    electron_maxstep = 1000
    scf_must_converge = .false.
    conv_thr =  1.0d-8,
    mixing_beta = 0.7
/
&ions
    pot_extrapolation='second-order'
    wfc_extrapolation='second-order'
    ion_temperature = 'andersen'
    tempw = 750

/
ATOMIC_SPECIES
 Au  28.086  Au.blyp-d-hgh.UPF
ATOMIC_POSITIONS bohr
 Au -2.523595 0.866297 0.453350
 Au -0.688760 3.890944 4.057346
 Au 4.251834 3.236787 0.097780
 Au 4.783480 4.311276 4.972865
 Au 4.307112 -0.363646 3.473935
K_POINTS
 1
0.0 0.0 0.0 1.0
