&control
    calculation='md'
    pseudo_dir = './',
    outdir='./outputs',
    dt=100,
    nstep=5000,
    disk_io='high'
/
&system
    ibrav= 1, celldm(1)=20.000000, nat=  6, ntyp= 2,
    ecutwfc = 30.0, nosym=.true., occupations='smearing',
    smearing='m-v', degauss=0.025
/
&electrons
    conv_thr =  1.0d-8,
    mixing_beta = 0.7
/
&ions
    pot_extrapolation='second-order'
    wfc_extrapolation='second-order'
    ion_temperature = 'andersen'
    tempw = 1000

/
ATOMIC_SPECIES
 H  1.01  H.blyp-hgh.UPF
 O  16.0  O.blyp-hgh.UPF
ATOMIC_POSITIONS bohr
 H 13.368812 15.025768 5.594908
 H 10.825330 12.449914 4.651774
 O 12.536578 4.511378 10.013020
 H 8.862002 17.308362 11.139450
 H 4.771710 4.846530 16.028546
 O 16.527836 4.036024 1.589624
K_POINTS
 1
0.0 0.0 0.0 1.0