&control
    calculation='relax'
    restart_mode='from_scratch',
    pseudo_dir = './',
    outdir='./outputs',
    disk_io='high'
/
&system
    ibrav= 1, celldm(1)=20.000000, nat=  5, ntyp= 1,
    ecutwfc = 30.0, nosym=.true., occupations='smearing',
    smearing='m-v', degauss=0.025
/
&electrons
    conv_thr =  1.0d-8,
    mixing_beta = 0.7
/
&ions
    pot_extrapolation='second-order'
    wfc_extrapolation='second-order'
    ion_temperature = 'andersen'
    tempw = 1000

/
ATOMIC_SPECIES
 Au  28.086  Au.blyp-d-hgh.UPF
ATOMIC_POSITIONS bohr
 Au -1.591515 2.247531 -1.196463
 Au -0.919103 3.825654 3.529891
 Au 3.063748 1.653177 0.563020
 Au 3.976390 3.787840 5.676926
 Au 7.323041 1.142539 3.175647
K_POINTS
 1
0.0 0.0 0.0 1.0