&control
    calculation='relax'
    restart_mode='from_scratch',
    pseudo_dir = './',
    outdir='./outputs',
    disk_io='high'
/
&system
    ibrav= 1, celldm(1)=20.000000, nat=  5, ntyp= 1,
    ecutwfc = 30.0, nosym=.true., occupations='smearing',
    smearing='m-v', degauss=0.025
/
&electrons
    conv_thr =  1.0d-8,
    mixing_beta = 0.7
/
&ions
    pot_extrapolation='second-order'
    wfc_extrapolation='second-order'
    ion_temperature = 'andersen'
    tempw = 1000

/
ATOMIC_SPECIES
 Au  28.086  Au.blyp-d-hgh.UPF
ATOMIC_POSITIONS bohr
 Au -2.094991 2.438939 -0.616927
 Au -0.553327 4.304101 4.051699
 Au 2.901162 2.330022 0.459254
 Au 4.274287 3.919663 5.380380
 Au 7.521059 1.067552 2.229375
K_POINTS
 1
0.0 0.0 0.0 1.0