&control
    calculation='relax'
    restart_mode='from_scratch',
    pseudo_dir = './',
    outdir='./outputs',
    disk_io='high'
/
&system
    ibrav= 1, celldm(1)=20.000000, nat=  5, ntyp= 1,
    ecutwfc = 30.0, nosym=.true., occupations='smearing',
    smearing='m-v', degauss=0.025
/
&electrons
    conv_thr =  1.0d-8,
    mixing_beta = 0.7
/
&ions
    pot_extrapolation='second-order'
    wfc_extrapolation='second-order'
    ion_temperature = 'andersen'
    tempw = 1000

/
ATOMIC_SPECIES
 Au  28.086  Au.blyp-d-hgh.UPF
ATOMIC_POSITIONS bohr
 Au -2.219650 0.705913 -0.202370
 Au -0.159993 2.969507 4.400496
 Au 2.875648 0.646338 0.041944
 Au 4.280363 4.139036 5.899521
 Au 7.606258 1.528351 2.567728
K_POINTS
 1
0.0 0.0 0.0 1.0