&control
    calculation='relax'
    restart_mode='from_scratch',
    pseudo_dir = './',
    outdir='./outputs',
    disk_io='high'
/
&system
    ibrav= 1, celldm(1)=20.000000, nat=  5, ntyp= 1,
    ecutwfc = 30.0, nosym=.true., occupations='smearing',
    smearing='m-v', degauss=0.025
/
&electrons
    conv_thr =  1.0d-8,
    mixing_beta = 0.7
/
&ions
    pot_extrapolation='second-order'
    wfc_extrapolation='second-order'
    ion_temperature = 'andersen'
    tempw = 1000

/
ATOMIC_SPECIES
 Au  28.086  Au.blyp-d-hgh.UPF
ATOMIC_POSITIONS bohr
 Au -1.013805 0.371467 0.371588
 Au -0.688975 3.954157 4.194380
 Au 2.715992 3.360707 0.738779
 Au 4.384236 4.960946 4.761409
 Au 4.966121 -0.069014 3.836881
K_POINTS
 1
0.0 0.0 0.0 1.0