&control
    calculation='relax'
    restart_mode='from_scratch',
    pseudo_dir = './',
    outdir='./outputs',
    disk_io='high'
/
&system
    ibrav= 1, celldm(1)=20.000000, nat=  5, ntyp= 1,
    ecutwfc = 30.0, nosym=.true., occupations='smearing',
    smearing='m-v', degauss=0.025
/
&electrons
    conv_thr =  1.0d-8,
    mixing_beta = 0.7
/
&ions
    pot_extrapolation='second-order'
    wfc_extrapolation='second-order'
    ion_temperature = 'andersen'
    tempw = 1000

/
ATOMIC_SPECIES
 Au  28.086  Au.blyp-d-hgh.UPF
ATOMIC_POSITIONS bohr
 Au -2.049718 1.043917 -0.445808
 Au -0.744034 2.650508 4.230559
 Au 2.960297 1.443111 0.386865
 Au 4.055780 3.451276 5.676710
 Au 7.594948 2.190384 2.191304
K_POINTS
 1
0.0 0.0 0.0 1.0